%block lattice_cart
2.4963771876550838   0.0                  0.0                 
-1.2481885887525956  2.1619260590785556   0.0                 
0.0                  0.0                  6.7801249176735885  
%endblock lattice_cart

%block positions_frac
C     0.560982147991365    0.7205648749462426   0.002808759167948176
C     0.917792939266209    0.38389527425470726  0.0011664007929479618
C     0.43736244528506996  0.28310693740693127  0.49821137591223197 
C     0.7505291341239606   0.9457662467257126   0.49781346412683175 
%endblock positions_frac

symmetry_generate

kpoints_mp_grid 36 36 6
