%block lattice_cart
2.4295556783886925   0.0                  0.0                 
-1.2147778342552422  2.104056934611153    0.0                 
0.0                  0.0                  6.598638649390867   
%endblock lattice_cart

%block positions_frac
C     0.8691793904649838   0.1898100394376805   0.011451314222022866
C     0.20138033168317815  0.8609451870704141   0.006373328763158514
C     0.12959822618562455  0.8054089384563393   0.4906605073342064  
C     0.4665087183328662   0.47716916836894485  0.49151484968060855 
%endblock positions_frac

symmetry_generate

kpoints_mp_grid 36 36 6
