%block lattice_cart
2.471640625189242    0.0                  0.0                 
-1.2358203075699692  2.1405035676091693   0.0                 
0.0                  0.0                  6.712940766023127   
%endblock lattice_cart

%block positions_frac
C     0.4614072283605921   0.20205859083019018  0.9989810287404122  
C     0.7958712477263212   0.860699484284325    0.9979152933430772  
C     0.5381247512700256   0.8024396209853721   0.5020685132115518  
C     0.8712634393097103   0.46813563723343776  0.5010351647049538  
%endblock positions_frac

symmetry_generate

kpoints_mp_grid 36 36 6
