%block lattice_cart
2.4783119810834258   0.0                  0.0                 
-1.2391559855034997  2.146281131283584    0.0                 
0.0                  0.0                  6.731060073696869   
%endblock lattice_cart

%block positions_frac
C     0.8536637475472819   0.7298175780565588   0.0157560459433993  
C     0.18016270468800233  0.38706473449781154  0.009599300547908732
C     0.14410519630369834  0.27086861626935743  0.49023965701280325 
C     0.48873501812763287  0.945582404509576    0.4844049964958822  
%endblock positions_frac

symmetry_generate

kpoints_mp_grid 36 36 6
