%block lattice_cart
2.4795262644509126   0.0                  0.0                 
-1.239763127184766   2.1473327315258155   0.0                 
0.0                  0.0                  6.734358050043396   
%endblock lattice_cart

%block positions_frac
C     0.7973664383904406   0.08409715594500841  0.013369449711167982
C     0.13864734140310375  0.7499469570217895   0.014152917621742787
C     0.19584054616743707  0.9155667710030597   0.488726578692936   
C     0.5348123407056313   0.5837224493636161   0.48375105397412455 
%endblock positions_frac

symmetry_generate

kpoints_mp_grid 36 36 6
