%block lattice_cart
2.441360931078728    0.0                  0.0                 
-1.2206804605762722  2.114280583325323    0.0                 
0.0                  0.0                  6.630701547705712   
%endblock lattice_cart

%block positions_frac
C     0.1092867138155249   0.9739346054483189   0.9879898686750804  
C     0.441404437608238    0.6137727093785923   0.9854444340800027  
C     0.884085546360577    0.040608469628393706 0.512425765249158   
C     0.23188996888220714  0.7050175488779455   0.5141399319957258  
%endblock positions_frac

symmetry_generate

kpoints_mp_grid 36 36 6
