%block lattice_cart
2.459563439765841    0.0                  0.0                 
-1.229781714882816   2.130044418240113    0.0                 
0.0                  0.0                  6.680139302274158   
%endblock lattice_cart

%block positions_frac
C     0.9965502706876919   0.9994424304497098   0.0008518188616684662
C     0.3327636000318606   0.663171171337825    0.9992264453682411  
C     0.0010679538173344794 0.002224719500722139 0.4993320022589478  
C     0.33628484212978027  0.6684950120450768   0.5005897335111428  
%endblock positions_frac

symmetry_generate

kpoints_mp_grid 36 36 6
