%block lattice_cart
2.498578359637579    0.0                  0.0                 
-1.2492891747393764  2.163832329930995    0.0                 
0.0                  0.0                  6.786103269454932   
%endblock lattice_cart

%block positions_frac
C     0.647690605763124    0.4133451786328237   0.9960310212463954  
C     0.9717562295492321   0.07388120597311243  0.9946208953504265  
C     0.3493440790114377   0.5749443573154629   0.5000836731432404  
C     0.6978757523425614   0.2711625914116311   0.5092644102598344  
%endblock positions_frac

symmetry_generate

kpoints_mp_grid 36 36 6
