%block lattice_cart
2.542359606535185    0.0                  0.0                 
-1.2711797980991701  2.2017480019035216   0.0                 
0.0                  0.0                  6.905012513011967   
%endblock lattice_cart

%block positions_frac
C     0.13493795359282856  0.8011057834361603   0.02203195846531915 
C     0.4807398141832202   0.4699117129769423   0.022696033988059455
C     0.8581190543446855   0.20496690035614754  0.47831871924183544 
C     0.19286984454584477  0.8573489365639277   0.47695328830480166 
%endblock positions_frac

symmetry_generate

kpoints_mp_grid 36 36 6
