%block lattice_cart
2.4984003356793023   0.0                  0.0                 
-1.2492001627605989  2.163678156660848    0.0                 
0.0                  0.0                  6.785619758917568   
%endblock lattice_cart

%block positions_frac
C     0.04966064464549902  0.9084365821727474   0.9891450824115227  
C     0.3878613954996055   0.559294220382494    0.9916051551642694  
C     0.9385538588399029   0.0968227583655441   0.5141307515602658  
C     0.2905907676813442   0.7687797724121985   0.505119010863846   
%endblock positions_frac

symmetry_generate

kpoints_mp_grid 36 36 6
