%block lattice_cart
2.460847648753615    0.0                  0.0                 
-1.2304238193740917  2.1311565758458184   0.0                 
0.0                  0.0                  6.683627195610372   
%endblock lattice_cart

%block positions_frac
C     0.5292024215007025   0.3384970115866027   0.999942891651295   
C     0.8739247980641287   0.9981285978759961   0.9916269286412477  
C     0.4673435278341227   0.6717412010854192   0.5029531547319439  
C     0.7961959192676966   0.3249665227853521   0.5054770249755127  
%endblock positions_frac

symmetry_generate

kpoints_mp_grid 36 36 6
