%block lattice_cart
2.4755679780289355   0.0                  0.0                 
-1.237783983981837   2.1439047549334806   0.0                 
0.0                  0.0                  6.723607400448667   
%endblock lattice_cart

%block positions_frac
C     0.6703245120741119   0.5169609796280472   0.980249451282491   
C     0.9870570092993454   0.18028552307582757  0.9794967199566353  
C     0.3436033552465272   0.48428545272995827  0.5242121401210452  
C     0.6656817900464524   0.15180137789933745  0.5160416886397688  
%endblock positions_frac

symmetry_generate

kpoints_mp_grid 36 36 6
