%block lattice_cart
2.448281754591653    0.0                  0.0                 
-1.2241408723186538  2.1202741922946875   0.0                 
0.0                  0.0                  6.649498405881921   
%endblock lattice_cart

%block positions_frac
C     0.5701078460311875   0.949585411854804    0.9913098215359323  
C     0.9098966506150274   0.6052497478649395   0.9885822474056495  
C     0.4280179647376601   0.05460011644734841  0.5065046752136975  
C     0.7586442052827276   0.7238980571664121   0.5136032558446914  
%endblock positions_frac

symmetry_generate

kpoints_mp_grid 36 36 6
