%block lattice_cart
2.476843454062534    0.0                  0.0                 
-1.2384217219960354  2.1450093495790123   0.0                 
0.0                  0.0                  6.72707157520555    
%endblock lattice_cart

%block positions_frac
C     0.9440147443550666   0.5264287613439217   0.9841868218406061  
C     0.2842160498359032   0.19295501321942332  0.9917085640957567  
C     0.06015008838607372  0.4785862713044253   0.5105009506687973  
C     0.3782857840896261   0.13536328746561394  0.5136036633948301  
%endblock positions_frac

symmetry_generate

kpoints_mp_grid 36 36 6
