%block lattice_cart
2.478328007151873    0.0                  0.0                 
-1.2391639985376846  2.146295010265953    0.0                 
0.0                  0.0                  6.731103600270661   
%endblock lattice_cart

%block positions_frac
C     0.41989320740826486  0.5431121484823995   0.004068812009254983
C     0.7823199566821444   0.2366548507750766   0.013301393555982914
C     0.5614543578896303   0.4422611498065393   0.4877109313327074  
C     0.9029991446861807   0.11130518426881575  0.4949188631021301  
%endblock positions_frac

symmetry_generate

kpoints_mp_grid 36 36 6
