%block lattice_cart
2.45955738783521     0.0                  0.0                 
-1.2297786889175144  2.1300391771144533   0.0                 
0.0                  0.0                  6.680122865316683   
%endblock lattice_cart

%block positions_frac
C     0.7853097490235761   0.3406940711948177   0.0003756788951231214
C     0.09946816062649089  0.009949722017390528 0.9939700996111599  
C     0.2241986091417474   0.6520426391886504   0.5006894408669967  
C     0.5576901478748517   0.3306469009324754   0.5049647806267203  
%endblock positions_frac

symmetry_generate

kpoints_mp_grid 36 36 6
