%block lattice_cart
2.4912017971974234   0.0                  0.0                 
-1.245600893534297   2.1574440394736585   0.0                 
0.0                  0.0                  6.7660686308375695  
%endblock lattice_cart

%block positions_frac
C     0.6313453122569008   0.5022700357359478   0.9875758565138985  
C     0.974787920749355    0.17959761335555147  0.984277218734798   
C     0.36955702888247366  0.49569533379874375  0.515624498813141   
C     0.6909764047778868   0.15577035044305898  0.5125224259381558  
%endblock positions_frac

symmetry_generate

kpoints_mp_grid 36 36 6
