%block lattice_cart
2.4640430141345595   0.0                  0.0                 
-1.2320215020580687  2.133923843436431    0.0                 
0.0                  0.0                  6.692305762514264   
%endblock lattice_cart

%block positions_frac
C     0.5402615655965164   0.29021822471588204  0.9825937772740022  
C     0.9010169845724976   0.9798756974367      0.9966242870946368  
C     0.45081418930922146  0.7043803026796299   0.513413835642961   
C     0.7745739271884227   0.3588591085011589   0.5073680999884002  
%endblock positions_frac

symmetry_generate

kpoints_mp_grid 36 36 6
