%block lattice_cart
2.463079721746573    0.0                  0.0                 
-1.231539855866038   2.13308960775827     0.0                 
0.0                  0.0                  6.689689474096372   
%endblock lattice_cart

%block positions_frac
C     0.6720901844158371   0.22953276145417068  0.995607880127744   
C     0.009757240097469477 0.9104791252834596   0.9968475949055878  
C     0.32716818802389636  0.7652113963858902   0.5042083025617871  
C     0.6576510541294636   0.4281100502098205   0.5033362224048843  
%endblock positions_frac

symmetry_generate

kpoints_mp_grid 36 36 6
