%block lattice_cart
2.4661250389978098   0.0                  0.0                 
-1.233062514485459   2.1357269298569337   0.0                 
0.0                  0.0                  6.697960512415168   
%endblock lattice_cart

%block positions_frac
C     0.02956695776857199  0.1678319081512046   0.9858159563780001  
C     0.36977194367037036  0.8341070816142585   0.9843419738927531  
C     0.9664837885969342   0.8337356134520613   0.5112644719461378  
C     0.3008439766307287   0.49765873011595496  0.5185775977830799  
%endblock positions_frac

symmetry_generate

kpoints_mp_grid 36 36 6
