%block lattice_cart
2.4771355977862015   0.0                  0.0                 
-1.238567793857276   2.14526235346494     0.0                 
0.0                  0.0                  6.727865033401787   
%endblock lattice_cart

%block positions_frac
C     0.7550567293497767   0.6526500182981386   0.0101609909100492  
C     0.10393807988192627  0.33276226862686975  0.00949120995235822 
C     0.23650911662835483  0.3429474069688953   0.48946650704972694 
C     0.5711627408066127   0.004973639439410649 0.4908812920878646  
%endblock positions_frac

symmetry_generate

kpoints_mp_grid 36 36 6
