%block lattice_cart
2.4104258180459555   0.0                  0.0                 
-1.205212904122768   2.0874899896054093   0.0                 
0.0                  0.0                  6.546682220922118   
%endblock lattice_cart

%block positions_frac
C     0.4629417974201786   0.8989264436733884   0.9765775044894524  
C     0.794679192762251    0.556746587287073    0.9772271084198246  
C     0.5346948966111089   0.10785758191426856  0.5230998418062621  
C     0.874350779873021    0.7698027204584358   0.523095545284477   
%endblock positions_frac

symmetry_generate

kpoints_mp_grid 36 36 6
