%block lattice_cart
2.481703659000659    0.0                  0.0                 
-1.2408518244552185  2.149218410517467    0.0                 
0.0                  0.0                  6.7402718226557194  
%endblock lattice_cart

%block positions_frac
C     0.5248451339335816   0.8273966476032344   0.011939357807441512
C     0.8343751879525705   0.503065007591753    0.02548693181980526 
C     0.4774084107443919   0.15802020364724997  0.4874885261167618  
C     0.8300379340361239   0.8448514744910234   0.475085184255994   
%endblock positions_frac

symmetry_generate

kpoints_mp_grid 36 36 6
