%block lattice_cart
2.447999734303606    0.0                  0.0                 
-1.223999862175211   2.120029955561184    0.0                 
0.0                  0.0                  6.648732442792825   
%endblock lattice_cart

%block positions_frac
C     0.09613427627014737  0.7209593745702492   0.01327163647146985 
C     0.4262530083294145   0.3804915809174645   0.005258886477224129
C     0.9032656599637789   0.2821425000443689   0.4935280661251458  
C     0.24101372210330663  0.9497398778012442   0.48794141092615473 
%endblock positions_frac

symmetry_generate

kpoints_mp_grid 36 36 6
