%block lattice_cart
2.463942491355967    0.0                  0.0                 
-1.231971240668977   2.1338367881566276   0.0                 
0.0                  0.0                  6.69203274407807    
%endblock lattice_cart

%block positions_frac
C     0.571358505149113    0.16073327504131102  0.008391717543167376
C     0.87194308948421     0.8081765433622031   0.004206207824991929
C     0.4407877019802855   0.8444864120473359   0.49031129762142256 
C     0.7825773700530649   0.5199371028824956   0.4970907770104165  
%endblock positions_frac

symmetry_generate

kpoints_mp_grid 36 36 6
