%block lattice_cart
2.45574119975767     0.0                  0.0                 
-1.2278705948864994  2.126734261298056    0.0                 
0.0                  0.0                  6.669758152803259   
%endblock lattice_cart

%block positions_frac
C     0.2807632955839985   0.853882505180311    0.9814551947031995  
C     0.5987722619305487   0.5043199910140544   0.9858509975938254  
C     0.7348027668585999   0.15912095649426525  0.5137082549041929  
C     0.052328342293069596 0.8160098806441588   0.518985552798863   
%endblock positions_frac

symmetry_generate

kpoints_mp_grid 36 36 6
