%block lattice_cart
2.47407650175319     0.0                  0.0                 
-1.2370382458469849  2.1426130985912284   0.0                 
0.0                  0.0                  6.719556572107715   
%endblock lattice_cart

%block positions_frac
C     0.6425487101739256   0.45939699872540696  0.004804097104979712
C     0.985061055250581    0.13301032613595076  0.00970898396495498 
C     0.3577419502711461   0.5387786957992979   0.48952209597546714 
C     0.6813149509709993   0.20214731267273833  0.4959648229545807  
%endblock positions_frac

symmetry_generate

kpoints_mp_grid 36 36 6
