%block lattice_cart
2.4996545294115213   0.0                  0.0                 
-1.2498272596241529  2.16476432029276     0.0                 
0.0                  0.0                  6.789026131246775   
%endblock lattice_cart

%block positions_frac
C     0.4429690477659025   0.4811859344480294   0.01997582245734703 
C     0.7712431232506916   0.14376189235388237  0.01702198199996466 
C     0.5662617473079001   0.5268754286242567   0.4810508380865783  
C     0.8861927483421146   0.18151007790741502  0.4819513574560704  
%endblock positions_frac

symmetry_generate

kpoints_mp_grid 36 36 6
