%block lattice_cart
2.4398292605862837   0.0                  0.0                 
-1.2199146253331534  2.1129541177703755   0.0                 
0.0                  0.0                  6.626541552444209   
%endblock lattice_cart

%block positions_frac
C     0.4488195275600759   0.4781052335018521   0.9972344660787467  
C     0.7773858406068515   0.14036008956785384  0.0012555840687289818
C     0.5498291750370132   0.5225417842348565   0.49915609336330596 
C     0.8906321234627104   0.19232622602886118  0.5023538564891957  
%endblock positions_frac

symmetry_generate

kpoints_mp_grid 36 36 6
