%block lattice_cart
2.433469611639719    0.0                  0.0                 
-1.2167348008728007  2.1074465002307816   0.0                 
0.0                  0.0                  6.609268836404539   
%endblock lattice_cart

%block positions_frac
C     0.45805608470237935  0.8637207732444141   0.9977905182622356  
C     0.7964290567221592   0.5337423277762836   0.9942072810673359  
C     0.5408716504402831   0.13285609797032438  0.5052627251497831  
C     0.8713098748018329   0.8030141343423909   0.5027394755206258  
%endblock positions_frac

symmetry_generate

kpoints_mp_grid 36 36 6
