%block lattice_cart
2.498984278462829    0.0                  0.0                 
-1.24949213415118    2.164183865945061    0.0                 
0.0                  0.0                  6.7872057392079945  
%endblock lattice_cart

%block positions_frac
C     0.6125705203056064   0.46783427809243605  0.018350306068073082
C     0.9544608641857035   0.12078541355738004  0.029517984688112318
C     0.384874472050166    0.5366358157869442   0.47695174530668816 
C     0.7147608101250249   0.20807782589646528  0.4751799639370808  
%endblock positions_frac

symmetry_generate

kpoints_mp_grid 36 36 6
