%block lattice_cart
2.461601116993642    0.0                  0.0                 
-1.2308005534925848  2.131809098481786    0.0                 
0.0                  0.0                  6.68567360462832    
%endblock lattice_cart

%block positions_frac
C     0.6208731100589517   0.28459488734421257  0.9930511152194004  
C     0.9403688746012477   0.9533396957293121   0.9924304433569187  
C     0.3787456234502464   0.7162474576595361   0.5091323002819714  
C     0.726679058556055    0.3791512926001541   0.5053861411416573  
%endblock positions_frac

symmetry_generate

kpoints_mp_grid 36 36 6
