%block lattice_cart
2.4684441141448326   0.0                  0.0                 
-1.2342220520542588  2.137735307844886    0.0                 
0.0                  0.0                  6.704259087513545   
%endblock lattice_cart

%block positions_frac
C     0.41696584410917614  0.33520003197019427  0.01022966561086785 
C     0.7472259234988674   0.9867494776777742   0.013563767265977284
C     0.5860236535956735   0.6808937482473201   0.4902831651949057  
C     0.9164512454629481   0.3304900754380736   0.4859234019282516  
%endblock positions_frac

symmetry_generate

kpoints_mp_grid 36 36 6
