%block lattice_cart
2.476023039161489    0.0                  0.0                 
-1.2380115145471817  2.144298849434009    0.0                 
0.0                  0.0                  6.724843340009007   
%endblock lattice_cart

%block positions_frac
C     0.5501922452064161   0.7977901202267195   0.003444211314524846
C     0.8804662684247191   0.4592046769334611   0.9917192722081011  
C     0.43880761142368385  0.19759250697671435  0.49703080830449975 
C     0.7972005416118506   0.8787460291963642   0.5078057081728775  
%endblock positions_frac

symmetry_generate

kpoints_mp_grid 36 36 6
