%block lattice_cart
2.5086664867834205   0.0                  0.0                 
-1.254333238291786   2.172568904304326    0.0                 
0.0                  0.0                  6.813502479226706   
%endblock lattice_cart

%block positions_frac
C     0.29190179183511056  0.5893346228653592   0.9659426364142129  
C     0.6106863939496581   0.2400599545572442   0.9632923435603679  
C     0.7096335136228795   0.41716191293948907  0.534390813798596   
C     0.05444496725885095  0.08677684297103205  0.5363742062268467  
%endblock positions_frac

symmetry_generate

kpoints_mp_grid 36 36 6
