%block lattice_cart
2.4709206745011993   0.0                  0.0                 
-1.2354603322274114  2.1398800720246753   0.0                 
0.0                  0.0                  6.710985390199458   
%endblock lattice_cart

%block positions_frac
C     0.4186757056300916   0.11581508206921498  0.9956836664952873  
C     0.7425520975067883   0.7875020055989213   0.9873183907528013  
C     0.5823999281440715   0.879277801671595    0.5100687372123953  
C     0.9230389353857014   0.5507384439935983   0.5069292055395117  
%endblock positions_frac

symmetry_generate

kpoints_mp_grid 36 36 6
