%block lattice_cart
2.475205693653016    0.0                  0.0                 
-1.237602841794615   2.143591007460956    0.0                 
0.0                  0.0                  6.722623441239055   
%endblock lattice_cart

%block positions_frac
C     0.001392715539019207 0.6229255385359629   0.013827622109280555
C     0.30449184055812495  0.29636526597123947  0.013321724095722891
C     0.005339155340916335 0.3789393986035261   0.48956982207932503 
C     0.35544295522844216  0.03510313022250244  0.48328083171562275 
%endblock positions_frac

symmetry_generate

kpoints_mp_grid 36 36 6
