%block lattice_cart
2.481492159326198    0.0                  0.0                 
-1.2407460746184202  2.1490352464267413   0.0                 
0.0                  0.0                  6.739697392549573   
%endblock lattice_cart

%block positions_frac
C     0.4838373252804775   0.5997943138075925   0.9913211389534695  
C     0.8185224451892168   0.25837385491999526  0.9946230595490214  
C     0.5048368123913622   0.40886192067419913  0.5030851672419083  
C     0.8594700838054035   0.06630324393123543  0.5109706342556429  
%endblock positions_frac

symmetry_generate

kpoints_mp_grid 36 36 6
