%block lattice_cart
2.458131290239485    0.0                  0.0                 
-1.2290656401225586  2.128804140369924    0.0                 
0.0                  0.0                  6.676249604540423   
%endblock lattice_cart

%block positions_frac
C     0.17155106712920265  0.011168534815412912 0.9757648616971023  
C     0.5094664609949717   0.6768339021613414   0.9808975850247894  
C     0.8222656275376572   0.998582751476242    0.5227819891090129  
C     0.1633835110047137   0.6467481448802506   0.5205555641690633  
%endblock positions_frac

symmetry_generate

kpoints_mp_grid 36 36 6
