%block lattice_cart
2.487228743571769    0.0                  0.0                 
-1.2436143667295345  2.15400327410778     0.0                 
0.0                  0.0                  6.755277873727667   
%endblock lattice_cart

%block positions_frac
C     0.8530606598866948   0.06542280421843949  0.006053497079964522
C     0.16029087436484968  0.7202455048172061   0.002095548397128899
C     0.1539388033480762   0.938503078271989    0.4975762780402347  
C     0.49937632906699037  0.609161946025925    0.4942746764826368  
%endblock positions_frac

symmetry_generate

kpoints_mp_grid 36 36 6
