%block lattice_cart
2.4357103516883227   0.0                  0.0                 
-1.2178551708925471  2.1093870380335833   0.0                 
0.0                  0.0                  6.615354654490326   
%endblock lattice_cart

%block positions_frac
C     0.4725312418648979   0.7937239604268773   0.013796678286150112
C     0.7952545329997038   0.45343031964553226  0.021303533159491055
C     0.5377926545087748   0.21922018228873852  0.4793459917592982  
C     0.8610882372932744   0.866958870972266    0.48555379679504057 
%endblock positions_frac

symmetry_generate

kpoints_mp_grid 36 36 6
