%block lattice_cart
2.4871204109734597   0.0                  0.0                 
-1.2435602004306128  2.1539094553257274   0.0                 
0.0                  0.0                  6.75498364393231    
%endblock lattice_cart

%block positions_frac
C     0.30901775939076614  0.07935580115278551  0.011539022235839667
C     0.6633630418275196   0.7497571566008627   0.008874769890847622
C     0.6853791792859223   0.9270524136905154   0.4925105386563023  
C     0.008906686162402977 0.5771679618891312   0.4870756692170019  
%endblock positions_frac

symmetry_generate

kpoints_mp_grid 36 36 6
