%block lattice_cart
2.4271693483144534   0.0                  0.0                 
-1.213584669222973   2.1019903121477785   0.0                 
0.0                  0.0                  6.59215741086723    
%endblock lattice_cart

%block positions_frac
C     0.7603722486829758   0.15125700524564664  0.9977333364424656  
C     0.1003730711628874   0.8302268217842237   0.9881026686768775  
C     0.24287362464786977  0.848680344579563    0.5083114153981427  
C     0.5630477221729215   0.5031691617239455   0.5058525794825094  
%endblock positions_frac

symmetry_generate

kpoints_mp_grid 36 36 6
