%block lattice_cart
2.433392157458954    0.0                  0.0                 
-1.2166960737825756  2.107379422942698    0.0                 
0.0                  0.0                  6.609058471951773   
%endblock lattice_cart

%block positions_frac
C     0.46641966534377133  0.8361387460000942   0.010993430616760863
C     0.7959851353594729   0.5010464765677431   0.008456205310572685
C     0.5438297747624219   0.17378783726448543  0.4915485373444418  
C     0.8604320912009857   0.8223602735010909   0.48900182672820497 
%endblock positions_frac

symmetry_generate

kpoints_mp_grid 36 36 6
