%block lattice_cart
2.511777130250732    0.0                  0.0                 
-1.2558885600191185  2.175262800565574    0.0                 
0.0                  0.0                  6.821950942618786   
%endblock lattice_cart

%block positions_frac
C     0.8756112290004712   0.807426387586615    0.9597285541028637  
C     0.2335859210447655   0.49255575892148473  0.9704030013657836  
C     0.11797965057730941  0.18884059692777136  0.5405429799855636  
C     0.4394898660439761   0.8445105898972773   0.5293254645458081  
%endblock positions_frac

symmetry_generate

kpoints_mp_grid 36 36 6
