%block lattice_cart
2.465833908202666    0.0                  0.0                 
-1.2329169490884815  2.1354748031928517   0.0                 
0.0                  0.0                  6.6971698053184205  
%endblock lattice_cart

%block positions_frac
C     0.9135763281280063   0.35890194177209744  0.006384572612368411
C     0.25750220919450884  0.041006554673663986 0.0037575318528586693
C     0.08632402871219758  0.6312939219660821   0.4922562106307014  
C     0.40926410063195817  0.302130914921498    0.4976016849040708  
%endblock positions_frac

symmetry_generate

kpoints_mp_grid 36 36 6
