%block lattice_cart
2.4671951748207785   0.0                  0.0                 
-1.23359758239477    2.136653694663902    0.0                 
0.0                  0.0                  6.700866986082089   
%endblock lattice_cart

%block positions_frac
C     0.04254714038813889  0.41859632640371525  0.995565331736661   
C     0.3681822201331738   0.07989090499053231  0.9976746958734473  
C     0.958970375071935    0.5816349659839475   0.5060952970394131  
C     0.29696693107341954  0.2532111359551443   0.5006646753504775  
%endblock positions_frac

symmetry_generate

kpoints_mp_grid 36 36 6
