%block lattice_cart
2.4781773718703977   0.0                  0.0                 
-1.2390886808972519  2.1461645562856555   0.0                 
0.0                  0.0                  6.730694476989761   
%endblock lattice_cart

%block positions_frac
C     0.5747103513284353   0.2745944765347803   0.9949458626410258  
C     0.9222749326554416   0.9315988041411374   0.9904192672690931  
C     0.4263648561990969   0.7359933597199484   0.5088068792167862  
C     0.7433165264836887   0.39114669293752535  0.5058279908730781  
%endblock positions_frac

symmetry_generate

kpoints_mp_grid 36 36 6
