%block lattice_cart
2.452883008534679    0.0                  0.0                 
-1.2264414992808172  2.124258995093343    0.0                 
0.0                  0.0                  6.661995346114303   
%endblock lattice_cart

%block positions_frac
C     0.30602558181186623  0.826004403279015    0.014860842703038123
C     0.6461321540105907   0.5038903339916594   0.01879478718320824 
C     0.7016379326494011   0.17477559449822008  0.48164830207944415 
C     0.01287099819443327  0.8286630015639993   0.48469606803437376 
%endblock positions_frac

symmetry_generate

kpoints_mp_grid 36 36 6
