%block lattice_cart
2.4712719684075157   0.0                  0.0                 
-1.2356359791798506  2.1401843014713307   0.0                 
0.0                  0.0                  6.711939499449999   
%endblock lattice_cart

%block positions_frac
C     0.8164010851900811   0.16696590275739734  0.9864908355467934  
C     0.14155142633848605  0.821544462503975    0.9890615916890266  
C     0.18622425866389802  0.8387222187367119   0.5137818679678351  
C     0.5224898964741946   0.5061007493352849   0.5106657047963472  
%endblock positions_frac

symmetry_generate

kpoints_mp_grid 36 36 6
