%block lattice_cart
22.13560932073025    0.0                  0.0                 
-11.067804660365121  19.169999999999998   0.0                 
0.0                  0.0                  20.0                
%endblock lattice_cart

%block positions_frac
C     0.26326955555555553  0.29831755555555556  0.5                 
C     0.29824155555555554  0.26012555555555555  0.5                 
C     0.37354822222222217  0.2975542222222222   0.5                 
C     0.4057722222222222   0.25574688888888886  0.5                 
C     0.47845622222222217  0.2878995555555556   0.5                 
C     0.5173775555555555   0.2537582222222222   0.5                 
C     0.5921142222222222   0.29108955555555555  0.5                 
C     0.6303755555555556   0.2575942222222222   0.5                 
C     0.7052888888888889   0.2962128888888889   0.5                 
C     0.743634888888889    0.2606182222222222   0.5                 
C     0.8172988888888889   0.2974488888888889   0.5                 
C     0.8549535555555555   0.2608562222222222   0.5                 
C     0.2632148888888889   0.4092048888888889   0.5                 
C     0.30275288888888885  0.3735328888888889   0.5                 
C     0.3773775555555556   0.41084888888888893  0.5                 
C     0.4147002222222222   0.3725782222222222   0.5                 
C     0.48991488888888884  0.40265888888888884  0.5                 
C     0.5173902222222222   0.35916088888888886  0.5                 
C     0.5919148888888889   0.39638022222222224  0.5                 
C     0.6309442222222222   0.3641282222222222   0.5                 
C     0.7036142222222223   0.4046802222222222   0.5                 
C     0.7423062222222222   0.3692782222222222   0.5                 
C     0.8166622222222223   0.4070355555555556   0.5                 
C     0.8549188888888889   0.3716848888888889   0.5                 
C     0.25829955555555556  0.5179768888888889   0.5                 
C     0.29821888888888887  0.48237422222222226  0.5                 
C     0.37352488888888885  0.5202522222222222   0.5                 
C     0.4147202222222222   0.48643488888888886  0.5                 
C     0.48993488888888886  0.5315815555555555   0.5                 
C     0.554698888888889    0.5290895555555556   0.5                 
C     0.5546575555555555   0.46991422222222223  0.5                 
C     0.6193615555555555   0.4673222222222222   0.5                 
C     0.6945695555555554   0.5124955555555556   0.5                 
C     0.7358028888888889   0.47870355555555555  0.5                 
C     0.8111082222222223   0.5166115555555556   0.5                 
C     0.8510955555555556   0.4810742222222222   0.5                 
C     0.25438355555555553  0.6273155555555555   0.5                 
C     0.2927075555555556   0.5920155555555556   0.5                 
C     0.36705622222222223  0.6297382222222222   0.5                 
C     0.4057108888888889   0.5942855555555556   0.5                 
C     0.47839688888888887  0.6348502222222222   0.5                 
C     0.5173635555555555   0.6025482222222222   0.5                 
C     0.5919002222222223   0.6398428888888888   0.5                 
C     0.6193935555555555   0.5963668888888889   0.5                 
C     0.6946082222222222   0.6264262222222222   0.5                 
C     0.7318442222222222   0.5880848888888889   0.5                 
C     0.8064668888888888   0.625406888888889    0.5                 
C     0.8460508888888889   0.5897768888888889   0.5                 
C     0.25438022222222223  0.7381088888888888   0.5                 
C     0.2920622222222222   0.7015475555555555   0.5                 
C     0.36575488888888885  0.7383748888888888   0.5                 
C     0.4041068888888889   0.7027935555555556   0.5                 
C     0.47903622222222214  0.7414128888888888   0.5                 
C     0.5172948888888889   0.7079208888888888   0.5                 
C     0.5920282222222223   0.7452688888888889   0.5                 
C     0.6308895555555556   0.7111015555555557   0.5                 
C     0.7035782222222222   0.7432395555555557   0.5                 
C     0.7357928888888889   0.7014375555555555   0.5                 
C     0.8111042222222222   0.7388435555555556   0.5                 
C     0.8460435555555557   0.7006302222222223   0.5                 
C     0.2583042222222222   0.8512955555555555   0.5                 
C     0.29275088888888884  0.8117248888888889   0.5                 
C     0.3671062222222222   0.8483262222222222   0.5                 
C     0.4041388888888889   0.8123155555555557   0.5                 
C     0.4790688888888888   0.8486822222222222   0.5                 
C     0.5178328888888889   0.8144302222222222   0.5                 
C     0.5915915555555556   0.8512355555555556   0.5                 
C     0.6303722222222222   0.8170022222222222   0.5                 
C     0.7053082222222221   0.8533502222222222   0.5                 
C     0.7423188888888889   0.8173162222222222   0.5                 
C     0.8166702222222223   0.8539095555555556   0.5                 
C     0.8511128888888888   0.8143308888888889   0.5                 
C     0.037037037037037056 0.07407407407407411  0.5                 
C     0.07407407407407411  0.037037037037037056 0.5                 
C     0.037037037037037056 0.18518518518518523  0.5                 
C     0.07407407407407411  0.14814814814814817  0.5                 
C     0.037037037037037056 0.29629629629629634  0.5                 
C     0.07407407407407411  0.2592592592592593   0.5                 
C     0.037037037037037056 0.40740740740740744  0.5                 
C     0.07407407407407411  0.3703703703703704   0.5                 
C     0.037037037037037056 0.5185185185185186   0.5                 
C     0.07407407407407411  0.48148148148148157  0.5                 
C     0.037037037037037056 0.6296296296296297   0.5                 
C     0.07407407407407411  0.5925925925925927   0.5                 
C     0.037037037037037056 0.7407407407407408   0.5                 
C     0.07407407407407411  0.7037037037037037   0.5                 
C     0.037037037037037056 0.8518518518518519   0.5                 
C     0.07407407407407411  0.8148148148148149   0.5                 
C     0.037037037037037056 0.9629629629629631   0.5                 
C     0.07407407407407411  0.925925925925926    0.5                 
C     0.14814814814814817  0.07407407407407411  0.5                 
C     0.18518518518518523  0.037037037037037056 0.5                 
C     0.14814814814814817  0.18518518518518523  0.5                 
C     0.18518518518518523  0.14814814814814817  0.5                 
C     0.14814814814814817  0.29629629629629634  0.5                 
C     0.18518518518518523  0.2592592592592593   0.5                 
C     0.14814814814814817  0.40740740740740744  0.5                 
C     0.18518518518518523  0.3703703703703704   0.5                 
C     0.14814814814814817  0.5185185185185186   0.5                 
C     0.18518518518518523  0.48148148148148157  0.5                 
C     0.14814814814814817  0.6296296296296297   0.5                 
C     0.18518518518518523  0.5925925925925927   0.5                 
C     0.14814814814814817  0.7407407407407408   0.5                 
C     0.18518518518518523  0.7037037037037037   0.5                 
C     0.14814814814814817  0.8518518518518519   0.5                 
C     0.18518518518518523  0.8148148148148149   0.5                 
C     0.14814814814814817  0.9629629629629631   0.5                 
C     0.18518518518518523  0.925925925925926    0.5                 
C     0.2592592592592593   0.07407407407407411  0.5                 
C     0.29629629629629634  0.037037037037037056 0.5                 
C     0.2592592592592593   0.18518518518518523  0.5                 
C     0.29629629629629634  0.14814814814814817  0.5                 
C     0.2592592592592593   0.9629629629629631   0.5                 
C     0.29629629629629634  0.925925925925926    0.5                 
C     0.3703703703703704   0.07407407407407411  0.5                 
C     0.40740740740740744  0.037037037037037056 0.5                 
C     0.3703703703703704   0.18518518518518523  0.5                 
C     0.40740740740740744  0.14814814814814817  0.5                 
C     0.3703703703703704   0.9629629629629631   0.5                 
C     0.40740740740740744  0.925925925925926    0.5                 
C     0.48148148148148157  0.07407407407407411  0.5                 
C     0.5185185185185186   0.037037037037037056 0.5                 
C     0.48148148148148157  0.18518518518518523  0.5                 
C     0.5185185185185186   0.14814814814814817  0.5                 
C     0.48148148148148157  0.9629629629629631   0.5                 
C     0.5185185185185186   0.925925925925926    0.5                 
C     0.5925925925925927   0.07407407407407411  0.5                 
C     0.6296296296296297   0.037037037037037056 0.5                 
C     0.5925925925925927   0.18518518518518523  0.5                 
C     0.6296296296296297   0.14814814814814817  0.5                 
C     0.5925925925925927   0.9629629629629631   0.5                 
C     0.6296296296296297   0.925925925925926    0.5                 
C     0.7037037037037037   0.07407407407407411  0.5                 
C     0.7407407407407408   0.037037037037037056 0.5                 
C     0.7037037037037037   0.18518518518518523  0.5                 
C     0.7407407407407408   0.14814814814814817  0.5                 
C     0.7037037037037037   0.9629629629629631   0.5                 
C     0.7407407407407408   0.925925925925926    0.5                 
C     0.8148148148148149   0.07407407407407411  0.5                 
C     0.8518518518518519   0.037037037037037056 0.5                 
C     0.8148148148148149   0.18518518518518523  0.5                 
C     0.8518518518518519   0.14814814814814817  0.5                 
C     0.8148148148148149   0.9629629629629631   0.5                 
C     0.8518518518518519   0.925925925925926    0.5                 
C     0.925925925925926    0.07407407407407411  0.5                 
C     0.9629629629629631   0.037037037037037056 0.5                 
C     0.925925925925926    0.18518518518518523  0.5                 
C     0.9629629629629631   0.14814814814814817  0.5                 
C     0.925925925925926    0.29629629629629634  0.5                 
C     0.9629629629629631   0.2592592592592593   0.5                 
C     0.925925925925926    0.40740740740740744  0.5                 
C     0.9629629629629631   0.3703703703703704   0.5                 
C     0.925925925925926    0.5185185185185186   0.5                 
C     0.9629629629629631   0.48148148148148157  0.5                 
C     0.925925925925926    0.6296296296296297   0.5                 
C     0.9629629629629631   0.5925925925925927   0.5                 
C     0.925925925925926    0.7407407407407408   0.5                 
C     0.9629629629629631   0.7037037037037037   0.5                 
C     0.925925925925926    0.8518518518518519   0.5                 
C     0.9629629629629631   0.8148148148148149   0.5                 
C     0.925925925925926    0.9629629629629631   0.5                 
C     0.9629629629629631   0.925925925925926    0.5                 
%endblock positions_frac

symmetry_generate

kpoints_mp_grid 4 4 1
