#************************************************************************************
#*                  Generated by cif2cell 1.2.10 2019-02-14 12:18                   *
#*  T. Bjorkman, Comp. Phys. Commun. 182, 1183-1186 (2011). Please cite generously. *
#*                                                                                  *
#*                Data obtained from COD. Reference number : 9008595                *
#*                                      (Iodine)                                    *
#*               Wyckoff, R. W. G., Crystal Structures 1, 7-83 (1963)               *
#************************************************************************************

%BLOCK LATTICE_CART
ang    # angstrom units
   3.635035000000000   0.000000000000000  -2.395020000000000
   0.000000000000000   9.793440000000000   0.000000000000000
   3.635035000000000   0.000000000000000   2.395020000000000
%ENDBLOCK LATTICE_CART

%BLOCK POSITIONS_FRAC
I    0.850700000000000   0.115600000000000   0.149300000000000 
I    0.649300000000000   0.615600000000000   0.350700000000000 
I    0.350700000000000   0.384400000000000   0.649300000000000 
I    0.149300000000000   0.884400000000000   0.850700000000000 
%ENDBLOCK POSITIONS_FRAC

# Commented out pseudopotential block for easy editing
#%BLOCK SPECIES_POT
# I   I_00.usp
#%ENDBLOCK SPECIES_POT


kpoints_mp_spacing 0.1
symmetry_generate