#************************************************************************************
#*                  Generated by cif2cell 1.2.10 2019-02-14 12:18                   *
#*  T. Bjorkman, Comp. Phys. Commun. 182, 1183-1186 (2011). Please cite generously. *
#*                                                                                  *
#*                Data obtained from COD. Reference number : 9008594                *
#*                                      (Bromine)                                   *
#*               Wyckoff, R. W. G., Crystal Structures 1, 7-83 (1963)               *
#************************************************************************************

%BLOCK LATTICE_CART
ang    # angstrom units
   3.335000000000000   0.000000000000000  -2.240000000000000
   0.000000000000000   8.720000000000001   0.000000000000000
   3.335000000000000   0.000000000000000   2.240000000000000
%ENDBLOCK LATTICE_CART

%BLOCK POSITIONS_FRAC
Br   0.865000000000000   0.110000000000000   0.135000000000000 
Br   0.635000000000000   0.610000000000000   0.365000000000000 
Br   0.365000000000000   0.390000000000000   0.635000000000000 
Br   0.135000000000000   0.890000000000000   0.865000000000000 
%ENDBLOCK POSITIONS_FRAC

# Commented out pseudopotential block for easy editing
#%BLOCK SPECIES_POT
# Br  Br_00.usp
#%ENDBLOCK SPECIES_POT


kpoints_mp_spacing 0.1
symmetry_generate