#************************************************************************************
#*                  Generated by cif2cell 1.2.10 2019-02-14 12:19                   *
#*  T. Bjorkman, Comp. Phys. Commun. 182, 1183-1186 (2011). Please cite generously. *
#*                                                                                  *
#*                Data obtained from COD. Reference number : 9008577                *
#*                                      (Sulphur)                                   *
#*               Wyckoff, R. W. G., Crystal Structures 1, 7-83 (1963)               *
#************************************************************************************

%BLOCK LATTICE_CART
ang    # angstrom units
   5.233500000000000   6.435000000000000   0.000000000000000
   5.233500000000000   0.000000000000000  12.246499999999999
   0.000000000000000   6.435000000000000  12.246499999999999
%ENDBLOCK LATTICE_CART

%BLOCK POSITIONS_FRAC
S    0.856400000000000   0.854400000000000   0.048800000000000 
S    0.145600000000000   0.143600000000000   0.259600000000000 
S    0.048800000000000   0.740400000000000   0.856400000000000 
S    0.740400000000000   0.048800000000000   0.854400000000000 
S    0.854400000000000   0.856400000000000   0.740400000000000 
S    0.951200000000000   0.259600000000000   0.143600000000000 
S    0.259600000000000   0.951200000000000   0.145600000000000 
S    0.143600000000000   0.145600000000000   0.951200000000000 
S    0.738200000000000   0.830600000000000   0.322000000000000 
S    0.169400000000000   0.261800000000000   0.390800000000000 
S    0.322000000000000   0.609200000000000   0.738200000000000 
S    0.609200000000000   0.322000000000000   0.830600000000000 
S    0.830600000000000   0.738200000000000   0.609200000000000 
S    0.678000000000000   0.390800000000000   0.261800000000000 
S    0.390800000000000   0.678000000000000   0.169400000000000 
S    0.261800000000000   0.169400000000000   0.678000000000000 
S    0.682400000000000   0.731400000000000   0.276600000000000 
S    0.268600000000000   0.317600000000000   0.190400000000000 
S    0.276600000000000   0.809600000000000   0.682400000000000 
S    0.809600000000000   0.276600000000000   0.731400000000000 
S    0.731400000000000   0.682400000000000   0.809600000000000 
S    0.723400000000000   0.190400000000000   0.317600000000000 
S    0.190400000000000   0.723400000000000   0.268600000000000 
S    0.317600000000000   0.268600000000000   0.723400000000000 
S    0.564500000000000   0.007900000000000   0.250000000000000 
S    0.992100000000000   0.435500000000000   0.322500000000000 
S    0.250100000000000   0.677500000000000   0.564500000000000 
S    0.677500000000000   0.250000000000000   0.007900000000000 
S    0.007900000000000   0.564500000000000   0.677500000000000 
S    0.750000000000000   0.322500000000000   0.435500000000000 
S    0.322500000000000   0.749900000000000   0.992100000000000 
S    0.435500000000000   0.992100000000000   0.749900000000000 
%ENDBLOCK POSITIONS_FRAC

# Commented out pseudopotential block for easy editing
#%BLOCK SPECIES_POT
# S   S_00.usp
#%ENDBLOCK SPECIES_POT


kpoints_mp_spacing 0.1
symmetry_generate