#************************************************************************************
#*                  Generated by cif2cell 1.2.10 2019-02-14 12:19                   *
#*  T. Bjorkman, Comp. Phys. Commun. 182, 1183-1186 (2011). Please cite generously. *
#*                                                                                  *
#*                Data obtained from COD. Reference number : 1011098                *
#*                                 Te   (Tellurium)                                 *
#*   Bradley, A J, Philosophical Magazine, Serie 6 (1901-1925) 48, 477-496 (1924)   *
#************************************************************************************

%BLOCK LATTICE_CART
ang    # angstrom units
   3.857277148455889  -2.227000000000000   0.000000000000000
   0.000000000000000   4.454000000000000   0.000000000000000
   0.000000000000000   0.000000000000000   5.924000000000000
%ENDBLOCK LATTICE_CART

%BLOCK POSITIONS_FRAC
Te   0.269000000000000   0.000000000000000   0.333333333333333 
Te   0.731000000000000   0.731000000000000   0.000000000000000 
Te   0.000000000000000   0.269000000000000   0.666666666666667 
%ENDBLOCK POSITIONS_FRAC

# Commented out pseudopotential block for easy editing
#%BLOCK SPECIES_POT
# Te  Te_00.usp
#%ENDBLOCK SPECIES_POT


kpoints_mp_spacing 0.1
symmetry_generate