#************************************************************************************
#*                  Generated by cif2cell 1.2.10 2019-02-14 12:18                   *
#*  T. Bjorkman, Comp. Phys. Commun. 182, 1183-1186 (2011). Please cite generously. *
#*                                                                                  *
#*                Data obtained from COD. Reference number : 9008572                *
#*                                    (Phosphorus)                                  *
#*               Wyckoff, R. W. G., Crystal Structures 1, 7-83 (1963)               *
#************************************************************************************

%BLOCK LATTICE_CART
ang    # angstrom units
   1.655000000000000   0.000000000000000  -5.250000000000000
   0.000000000000000   4.380000000000000   0.000000000000000
   1.655000000000000   0.000000000000000   5.250000000000000
%ENDBLOCK LATTICE_CART

%BLOCK POSITIONS_FRAC
P    0.902000000000000   0.090000000000000   0.098000000000000 
P    0.598000000000000   0.590000000000000   0.402000000000000 
P    0.402000000000000   0.410000000000000   0.598000000000000 
P    0.098000000000000   0.910000000000000   0.902000000000000 
%ENDBLOCK POSITIONS_FRAC

# Commented out pseudopotential block for easy editing
#%BLOCK SPECIES_POT
# P   P_00.usp
#%ENDBLOCK SPECIES_POT


kpoints_mp_spacing 0.1
symmetry_generate