#************************************************************************************
#*                  Generated by cif2cell 1.2.10 2019-02-14 12:18                   *
#*  T. Bjorkman, Comp. Phys. Commun. 182, 1183-1186 (2011). Please cite generously. *
#*                                                                                  *
#*                Data obtained from COD. Reference number : 9008561                *
#*                                       (Boron)                                    *
#*               Wyckoff, R. W. G., Crystal Structures 1, 7-83 (1963)               *
#************************************************************************************

%BLOCK LATTICE_CART
ang    # angstrom units
   2.833635121182683   0.000000000000000   4.189000000000000
  -1.416817560591342   2.454000000000000   4.189000000000000
  -1.416817560591342  -2.454000000000000   4.189000000000000
%ENDBLOCK LATTICE_CART

%BLOCK POSITIONS_FRAC
B    0.010400000000000   0.657300000000000   0.010400000000000 
B    0.989600000000000   0.342700000000000   0.989600000000000 
B    0.342700000000000   0.989600000000000   0.989600000000000 
B    0.010400000000000   0.010400000000000   0.657300000000000 
B    0.657300000000000   0.010400000000000   0.010400000000000 
B    0.989600000000000   0.989600000000000   0.342700000000000 
B    0.220600000000000   0.632300000000000   0.220600000000000 
B    0.779400000000000   0.367700000000000   0.779400000000000 
B    0.367700000000000   0.779400000000000   0.779400000000000 
B    0.220600000000000   0.220600000000000   0.632300000000000 
B    0.632300000000000   0.220600000000000   0.220600000000000 
B    0.779400000000000   0.779400000000000   0.367700000000000 
%ENDBLOCK POSITIONS_FRAC

# Commented out pseudopotential block for easy editing
#%BLOCK SPECIES_POT
# B   B_00.usp
#%ENDBLOCK SPECIES_POT


kpoints_mp_spacing 0.1
symmetry_generate