#************************************************************************************
#*                  Generated by cif2cell 1.2.10 2019-02-14 12:19                   *
#*  T. Bjorkman, Comp. Phys. Commun. 182, 1183-1186 (2011). Please cite generously. *
#*                                                                                  *
#*                Data obtained from COD. Reference number : 9010996                *
#*                                         ()                                       *
#*         Spedding, F. H. et al., Acta Crystallographica 9, 559-563 (1956)         *
#************************************************************************************

%BLOCK LATTICE_CART
ang    # angstrom units
   3.063564865887451  -1.768750000000000   0.000000000000000
   0.000000000000000   3.537500000000000   0.000000000000000
   0.000000000000000   0.000000000000000   5.554600000000000
%ENDBLOCK LATTICE_CART

%BLOCK POSITIONS_FRAC
Tm   0.333333333333333   0.666666666666667   0.250000000000000 
Tm   0.666666666666667   0.333333333333333   0.750000000000000 
%ENDBLOCK POSITIONS_FRAC

# Commented out pseudopotential block for easy editing
#%BLOCK SPECIES_POT
# Tm  Tm_00.usp
#%ENDBLOCK SPECIES_POT


kpoints_mp_spacing 0.1
symmetry_generate