#************************************************************************************
#*                  Generated by cif2cell 1.2.10 2019-02-15 14:24                   *
#*  T. Bjorkman, Comp. Phys. Commun. 182, 1183-1186 (2011). Please cite generously. *
#*                                                                                  *
#*                Data obtained from ICSD. Reference number : 19079                 *
#*                         Cl F3   (Chlorine(III) fluoride)                         *
#*   Burbank, R.D. and Bensey, F., Journal of Chemical Physics 21, 602-608 (1953)   *
#************************************************************************************

%BLOCK LATTICE_CART
ang    # angstrom units
   8.820000000000000   0.000000000000000   0.000000000000000
   0.000000000000000   6.090000000000000   0.000000000000000
   0.000000000000000   0.000000000000000   4.520000000000000
%ENDBLOCK LATTICE_CART

%BLOCK POSITIONS_FRAC
Cl   0.158200000000000   0.250000000000000   0.379000000000000 
Cl   0.341800000000000   0.750000000000000   0.879000000000000 
Cl   0.841800000000000   0.750000000000000   0.621000000000000 
Cl   0.658200000000000   0.250000000000000   0.121000000000000 
F    0.042200000000000   0.250000000000000   0.101000000000000 
F    0.457800000000000   0.750000000000000   0.601000000000000 
F    0.957800000000000   0.750000000000000   0.899000000000000 
F    0.542200000000000   0.250000000000000   0.399000000000000 
F    0.151700000000000   0.531500000000000   0.363400000000000 
F    0.348300000000000   0.031500000000000   0.863400000000000 
F    0.348300000000000   0.468500000000000   0.863400000000000 
F    0.848300000000000   0.031500000000000   0.636600000000000 
F    0.848300000000000   0.468500000000000   0.636600000000000 
F    0.651700000000000   0.968500000000000   0.136600000000000 
F    0.651700000000000   0.531500000000000   0.136600000000000 
F    0.151700000000000   0.968500000000000   0.363400000000000 
%ENDBLOCK POSITIONS_FRAC

# Commented out pseudopotential block for easy editing
#%BLOCK SPECIES_POT
# F   F_00.usp
# Cl  Cl_00.usp
#%ENDBLOCK SPECIES_POT


kpoints_mp_spacing 0.1
symmetry_generate