#**************************************************************************************
#*                   Generated by cif2cell 1.2.10 2019-02-15 14:24                    *
#*   T. Bjorkman, Comp. Phys. Commun. 182, 1183-1186 (2011). Please cite generously.  *
#*                                                                                    *
#*                 Data obtained from ICSD. Reference number : 16516                  *
#*                                   As   (Arsenic)                                   *
#* Schiferl, D. and Barrett, C.S., Journal of Applied Crystallography 2, 30-36 (1969) *
#**************************************************************************************

%BLOCK LATTICE_CART
ang    # angstrom units
   2.170663807072236   0.000000000000000   3.480400000000000
  -1.085331903536118   1.879850000000000   3.480400000000000
  -1.085331903536118  -1.879850000000000   3.480400000000000
%ENDBLOCK LATTICE_CART

%BLOCK POSITIONS_FRAC
As   0.227640000000000   0.227640000000000   0.227640000000000 
As   0.772360000000000   0.772360000000000   0.772360000000000 
%ENDBLOCK POSITIONS_FRAC

# Commented out pseudopotential block for easy editing
#%BLOCK SPECIES_POT
# As  As_00.usp
#%ENDBLOCK SPECIES_POT


kpoints_mp_spacing 0.1
symmetry_generate