#************************************************************************************
#*                  Generated by cif2cell 1.2.10 2019-02-18 10:37                   *
#*  T. Bjorkman, Comp. Phys. Commun. 182, 1183-1186 (2011). Please cite generously. *
#*                                                                                  *
#*                Data obtained from ICSD. Reference number : 20904                 *
#*                             B F3   (Boron fluoride)                              *
#*      Antipin, M.Yu. et al., Doklady Akademii Nauk SSSR 279, 892-895 (1984)       *
#************************************************************************************

%BLOCK LATTICE_CART
ang    # angstrom units
   4.730000000000000   0.000000000000000   0.000000000000000
   2.192842321449595   7.040406135533628   0.000000000000000
   0.190407096470770   0.653777528516814  13.970414778410126
%ENDBLOCK LATTICE_CART

%BLOCK POSITIONS_FRAC
F    0.228200000000000   0.295400000000000   0.556100000000000 
F    0.771800000000000   0.704600000000000   0.443900000000000 
F    0.928500000000000   0.158800000000000   0.637900000000000 
F    0.071500000000000   0.841200000000000   0.362100000000000 
F    0.253600000000000   0.265200000000000   0.715100000000000 
F    0.746400000000000   0.734800000000000   0.284900000000000 
F    0.290000000000000   0.700300000000000   0.578700000000000 
F    0.710000000000000   0.299700000000000   0.421300000000000 
F    0.731600000000000   0.580200000000000   0.649300000000000 
F    0.268400000000000   0.419800000000000   0.350700000000000 
F    0.542600000000000   0.895300000000000   0.622500000000000 
F    0.457400000000000   0.104700000000000   0.377500000000000 
F    0.933000000000000   0.655700000000000   0.864700000000000 
F    0.067000000000000   0.344300000000000   0.135300000000000 
F    0.249800000000000   0.780800000000000   0.785500000000000 
F    0.750200000000000   0.219200000000000   0.214500000000000 
F    0.240900000000000   0.770300000000000   0.944000000000000 
F    0.759100000000000   0.229700000000000   0.056000000000000 
F    0.461000000000000   0.607800000000000   0.133400000000000 
F    0.539000000000000   0.392200000000000   0.866600000000000 
F    0.701400000000000   0.808100000000000   0.074200000000000 
F    0.298600000000000   0.191900000000000   0.925800000000000 
F    0.257100000000000   0.922200000000000   0.142100000000000 
F    0.742900000000000   0.077800000000000   0.857900000000000 
B    0.134900000000000   0.239200000000000   0.636400000000000 
B    0.865100000000000   0.760800000000000   0.363600000000000 
B    0.520300000000000   0.724700000000000   0.616300000000000 
B    0.479700000000000   0.275300000000000   0.383700000000000 
B    0.140100000000000   0.734500000000000   0.865000000000000 
B    0.859900000000000   0.265500000000000   0.135000000000000 
B    0.473500000000000   0.778900000000000   0.115900000000000 
B    0.526500000000000   0.221100000000000   0.884100000000000 
%ENDBLOCK POSITIONS_FRAC

# Commented out pseudopotential block for easy editing
#%BLOCK SPECIES_POT
# B   B_00.usp
# F   F_00.usp
#%ENDBLOCK SPECIES_POT


kpoints_mp_spacing 0.1
symmetry_generate