#************************************************************************************
#*                  Generated by cif2cell 1.2.10 2019-02-14 12:18                   *
#*  T. Bjorkman, Comp. Phys. Commun. 182, 1183-1186 (2011). Please cite generously. *
#*                                                                                  *
#*                                  Hg   (Mercury)                                  *
#*         R. St. Amand and B. C. Giessen, Failed to create journal string          *
#************************************************************************************

%BLOCK LATTICE_CART
ang    # angstrom units
   3.992481064482392   0.000000000000000   2.227841769459749
  -1.996240532241196   3.457590025970089   2.227841769459749
  -1.996240532241196  -3.457590025970089   2.227841769459749
%ENDBLOCK LATTICE_CART

%BLOCK POSITIONS_FRAC
Hg   0.000000000000000   0.000000000000000   0.000000000000000 
%ENDBLOCK POSITIONS_FRAC

# Commented out pseudopotential block for easy editing
#%BLOCK SPECIES_POT
# Hg  Hg_00.usp
#%ENDBLOCK SPECIES_POT


kpoints_mp_spacing 0.1
symmetry_generate