#************************************************************************************
#*                  Generated by cif2cell 1.2.10 2019-02-18 10:38                   *
#*  T. Bjorkman, Comp. Phys. Commun. 182, 1183-1186 (2011). Please cite generously. *
#*                                                                                  *
#*                Data obtained from ICSD. Reference number : 84461                 *
#*                                 N H3   (Ammonia)                                 *
#*      Boese, R. et al., Journal of Physical Chemistry 101, 5794-5799 (1997)       *
#************************************************************************************

%BLOCK LATTICE_CART
ang    # angstrom units
   5.130500000000000   0.000000000000000   0.000000000000000
   0.000000000000000   5.130500000000000   0.000000000000000
   0.000000000000000   0.000000000000000   5.130500000000000
%ENDBLOCK LATTICE_CART

%BLOCK POSITIONS_FRAC
N    0.210300000000000   0.210300000000000   0.210300000000000 
N    0.289700000000000   0.789700000000000   0.710300000000000 
N    0.710300000000000   0.289700000000000   0.789700000000000 
N    0.789700000000000   0.710300000000000   0.289700000000000 
H    0.372200000000000   0.262700000000000   0.111300000000000 
H    0.388700000000000   0.627800000000000   0.762700000000000 
H    0.611300000000000   0.127800000000000   0.737300000000000 
H    0.888700000000000   0.872200000000000   0.237300000000000 
H    0.262700000000000   0.111300000000000   0.372200000000000 
H    0.237300000000000   0.888700000000000   0.872200000000000 
H    0.627800000000000   0.762700000000000   0.388700000000000 
H    0.111300000000000   0.372200000000000   0.262700000000000 
H    0.127800000000000   0.737300000000000   0.611300000000000 
H    0.872200000000000   0.237300000000000   0.888700000000000 
H    0.762700000000000   0.388700000000000   0.627800000000000 
H    0.737300000000000   0.611300000000000   0.127800000000000 
%ENDBLOCK POSITIONS_FRAC

# Commented out pseudopotential block for easy editing
#%BLOCK SPECIES_POT
# H   H_00.usp
# N   N_00.usp
#%ENDBLOCK SPECIES_POT


kpoints_mp_spacing 0.1
symmetry_generate