#********************************************************************************************************************
#*                                  Generated by cif2cell 1.2.10 2019-02-18 10:37                                   *
#*                  T. Bjorkman, Comp. Phys. Commun. 182, 1183-1186 (2011). Please cite generously.                 *
#*                                                                                                                  *
#*                                Data obtained from ICSD. Reference number : 41440                                 *
#*                                             Na Br   (Sodium bromide)                                             *
#* Srinivasa, R.B. and Sanyal, S.P., Physical Review B: Condensed Matter and Materials Physics 42, 1810-1816 (1990) *
#********************************************************************************************************************

%BLOCK LATTICE_CART
ang    # angstrom units
   3.000000000000000   3.000000000000000   0.000000000000000
   3.000000000000000   0.000000000000000   3.000000000000000
   0.000000000000000   3.000000000000000   3.000000000000000
%ENDBLOCK LATTICE_CART

%BLOCK POSITIONS_FRAC
Br   0.500000000000000   0.500000000000000   0.500000000000000 
Na   0.000000000000000   0.000000000000000   0.000000000000000 
%ENDBLOCK POSITIONS_FRAC

# Commented out pseudopotential block for easy editing
#%BLOCK SPECIES_POT
# Na  Na_00.usp
# Br  Br_00.usp
#%ENDBLOCK SPECIES_POT


kpoints_mp_spacing 0.1
symmetry_generate