#******************************************************************************************
#*                     Generated by cif2cell 1.2.10 2019-02-18 10:37                      *
#*     T. Bjorkman, Comp. Phys. Commun. 182, 1183-1186 (2011). Please cite generously.    *
#*                                                                                        *
#*                   Data obtained from ICSD. Reference number : 22156                    *
#*                              K Cl   (Potassium chloride)                               *
#* Ahtee, M., Annales Academiae Scientiarum Fennicae, Series A6: Physica 313, 1-11 (1969) *
#******************************************************************************************

%BLOCK LATTICE_CART
ang    # angstrom units
   3.139400000000000   3.139400000000000   0.000000000000000
   3.139400000000000   0.000000000000000   3.139400000000000
   0.000000000000000   3.139400000000000   3.139400000000000
%ENDBLOCK LATTICE_CART

%BLOCK POSITIONS_FRAC
K    0.000000000000000   0.000000000000000   0.000000000000000 
Cl   0.500000000000000   0.500000000000000   0.500000000000000 
%ENDBLOCK POSITIONS_FRAC

# Commented out pseudopotential block for easy editing
#%BLOCK SPECIES_POT
# K   K_00.usp
# Cl  Cl_00.usp
#%ENDBLOCK SPECIES_POT


kpoints_mp_spacing 0.1
symmetry_generate