#****************************************************************************************
#*                    Generated by cif2cell 1.2.10 2019-02-15 14:24                     *
#*    T. Bjorkman, Comp. Phys. Commun. 182, 1183-1186 (2011). Please cite generously.   *
#*                                                                                      *
#*                  Data obtained from ICSD. Reference number : 60559                   *
#*                              Ca F2   (Calcium fluoride)                              *
#* Cheetham, A.K. et al., Journal of Physics C: Solid State Physics 4, 3107-3121 (1971) *
#****************************************************************************************

%BLOCK LATTICE_CART
ang    # angstrom units
   2.731000000000000   2.731000000000000   0.000000000000000
   2.731000000000000   0.000000000000000   2.731000000000000
   0.000000000000000   2.731000000000000   2.731000000000000
%ENDBLOCK LATTICE_CART

%BLOCK POSITIONS_FRAC
Ca   0.000000000000000   0.000000000000000   0.000000000000000 
F    0.250000000000000   0.250000000000000   0.250000000000000 
F    0.750000000000000   0.750000000000000   0.750000000000000 
%ENDBLOCK POSITIONS_FRAC

# Commented out pseudopotential block for easy editing
#%BLOCK SPECIES_POT
# Ca  Ca_00.usp
# F   F_00.usp
#%ENDBLOCK SPECIES_POT


kpoints_mp_spacing 0.1
symmetry_generate