#********************************************************************************************************************************
#*                                        Generated by cif2cell 1.2.10 2019-02-15 14:24                                         *
#*                        T. Bjorkman, Comp. Phys. Commun. 182, 1183-1186 (2011). Please cite generously.                       *
#*                                                                                                                              *
#*                                      Data obtained from ICSD. Reference number : 15535                                       *
#*                                                     O2   (Oxygen - beta)                                                     *
#* Schiferl, D. et al., Acta Crystallographica, Section B: Structural Crystallography and CrystalChemistry 37, 1329-1332 (1981) *
#********************************************************************************************************************************

%BLOCK LATTICE_CART
ang    # angstrom units
   1.643543011302107   0.000000000000000   3.408300000000000
  -0.821771505651054   1.423350000000000   3.408300000000000
  -0.821771505651054  -1.423350000000000   3.408300000000000
%ENDBLOCK LATTICE_CART

%BLOCK POSITIONS_FRAC
O    0.057700000000000   0.057700000000000   0.057700000000000 
O    0.942300000000000   0.942300000000000   0.942300000000000 
%ENDBLOCK POSITIONS_FRAC

# Commented out pseudopotential block for easy editing
#%BLOCK SPECIES_POT
# O   O_00.usp
#%ENDBLOCK SPECIES_POT


kpoints_mp_spacing 0.1
symmetry_generate