#************************************************************************************
#*                  Generated by cif2cell 1.2.10 2019-02-18 10:37                   *
#*  T. Bjorkman, Comp. Phys. Commun. 182, 1183-1186 (2011). Please cite generously. *
#*                                                                                  *
#*                 Data obtained from ICSD. Reference number : 9863                 *
#*                             Mg O   (Magnesium oxide)                             *
#*       Sasaki, S. et al., Proceedings of the Japan Academy 55, 43-48 (1979)       *
#************************************************************************************

%BLOCK LATTICE_CART
ang    # angstrom units
   2.108500000000000   2.108500000000000   0.000000000000000
   2.108500000000000   0.000000000000000   2.108500000000000
   0.000000000000000   2.108500000000000   2.108500000000000
%ENDBLOCK LATTICE_CART

%BLOCK POSITIONS_FRAC
Mg   0.000000000000000   0.000000000000000   0.000000000000000 
O    0.500000000000000   0.500000000000000   0.500000000000000 
%ENDBLOCK POSITIONS_FRAC

# Commented out pseudopotential block for easy editing
#%BLOCK SPECIES_POT
# Mg  Mg_00.usp
# O   O_00.usp
#%ENDBLOCK SPECIES_POT


kpoints_mp_spacing 0.1
symmetry_generate