#************************************************************************************
#*                  Generated by cif2cell 1.2.10 2019-02-18 10:37                   *
#*  T. Bjorkman, Comp. Phys. Commun. 182, 1183-1186 (2011). Please cite generously. *
#*                                                                                  *
#*                Data obtained from ICSD. Reference number : 15598                 *
#*                            B2 H6   (Diborane - beta)                             *
#* Smith, H.W. and Lipscomb, W.N., Journal of Chemical Physics 43, 1060-1064 (1965) *
#************************************************************************************

%BLOCK LATTICE_CART
ang    # angstrom units
   4.400000000000000   0.000000000000000   0.000000000000000
  -1.490085789435948   5.522503448629167   0.000000000000000
   0.000000000000000   0.000000000000000   6.500000000000000
%ENDBLOCK LATTICE_CART

%BLOCK POSITIONS_FRAC
B    0.002000000000000   0.146000000000000   0.042000000000000 
B    0.998000000000000   0.854000000000000   0.958000000000000 
B    0.502000000000000   0.646000000000000   0.458000000000000 
B    0.498000000000000   0.354000000000000   0.542000000000000 
H    0.806000000000000   0.166000000000000   0.140000000000000 
H    0.194000000000000   0.834000000000000   0.860000000000000 
H    0.306000000000000   0.666000000000000   0.360000000000000 
H    0.694000000000000   0.334000000000000   0.640000000000000 
H    0.196000000000000   0.294000000000000   0.995000000000000 
H    0.804000000000000   0.706000000000000   0.005000000000000 
H    0.696000000000000   0.794000000000000   0.505000000000000 
H    0.304000000000000   0.206000000000000   0.495000000000000 
H    0.104000000000000   0.981000000000000   0.112000000000000 
H    0.896000000000000   0.019000000000000   0.888000000000000 
H    0.604000000000000   0.481000000000000   0.388000000000000 
H    0.396000000000000   0.519000000000000   0.612000000000000 
%ENDBLOCK POSITIONS_FRAC

# Commented out pseudopotential block for easy editing
#%BLOCK SPECIES_POT
# H   H_00.usp
# B   B_00.usp
#%ENDBLOCK SPECIES_POT


kpoints_mp_spacing 0.1
symmetry_generate