#**************************************************************************************
#*                   Generated by cif2cell 1.2.10 2019-02-15 14:24                    *
#*   T. Bjorkman, Comp. Phys. Commun. 182, 1183-1186 (2011). Please cite generously.  *
#*                                                                                    *
#*                 Data obtained from ICSD. Reference number : 187642                 *
#*                               C H   (Carbon hydride)                               *
#* Lian, Chao-Sheng et al., Journal of Chemical Physics 138, 024702-1-024702-5 (2013) *
#**************************************************************************************

%BLOCK LATTICE_CART
ang    # angstrom units
  -2.126000000000000   2.126000000000000   2.126000000000000
   2.126000000000000  -2.126000000000000   2.126000000000000
   2.126000000000000   2.126000000000000  -2.126000000000000
%ENDBLOCK LATTICE_CART

%BLOCK POSITIONS_FRAC
C    0.177000000000000   0.177000000000000   0.177000000000000 
C    0.000000000000000   0.323000000000000   0.500000000000000 
C    0.323000000000000   0.500000000000000   0.000000000000000 
C    0.500000000000000   0.000000000000000   0.323000000000000 
H    0.879200000000000   0.879200000000000   0.879200000000000 
H    0.000000000000000   0.620800000000000   0.500000000000000 
H    0.620800000000000   0.500000000000000   0.000000000000000 
H    0.500000000000000   0.000000000000000   0.620800000000000 
%ENDBLOCK POSITIONS_FRAC

# Commented out pseudopotential block for easy editing
#%BLOCK SPECIES_POT
# H   H_00.usp
# C   C_00.usp
#%ENDBLOCK SPECIES_POT


kpoints_mp_spacing 0.1
symmetry_generate