#************************************************************************************
#*                  Generated by cif2cell 1.2.10 2019-02-15 14:24                   *
#*  T. Bjorkman, Comp. Phys. Commun. 182, 1183-1186 (2011). Please cite generously. *
#*                                                                                  *
#*                Data obtained from ICSD. Reference number : 18154                 *
#*                                 Cl2   (Chlorine)                                 *
#*     Donohue, J. and Goodman, S.H., Acta Crystallographica 18, 568-569 (1965)     *
#************************************************************************************

%BLOCK LATTICE_CART
ang    # angstrom units
   3.145000000000000  -2.250000000000000   0.000000000000000
   3.145000000000000   2.250000000000000   0.000000000000000
   0.000000000000000   0.000000000000000   8.210000000000001
%ENDBLOCK LATTICE_CART

%BLOCK POSITIONS_FRAC
Cl   0.882700000000000   0.117300000000000   0.101600000000000 
Cl   0.617300000000000   0.382700000000000   0.601600000000000 
Cl   0.382700000000000   0.617300000000000   0.398400000000000 
Cl   0.117300000000000   0.882700000000000   0.898400000000000 
%ENDBLOCK POSITIONS_FRAC

# Commented out pseudopotential block for easy editing
#%BLOCK SPECIES_POT
# Cl  Cl_00.usp
#%ENDBLOCK SPECIES_POT


kpoints_mp_spacing 0.1
symmetry_generate