#**********************************************************************************************************
#*                             Generated by cif2cell 1.2.10 2019-02-15 14:24                              *
#*             T. Bjorkman, Comp. Phys. Commun. 182, 1183-1186 (2011). Please cite generously.            *
#*                                                                                                        *
#*                           Data obtained from ICSD. Reference number : 672090                           *
#*                                        C1 H1   (Carbon Hydride)                                        *
#* Kondrin, Mikhail V. and Brazhkin, Vadim V., Physical Chemistry Chemical Physics 17, 17739-17744 (2015) *
#**********************************************************************************************************

%BLOCK LATTICE_CART
ang    # angstrom units
   5.998498978550801  -3.463235000000000   0.000000000000000
   0.000000000000000   6.926470000000000   0.000000000000000
   0.000000000000000   0.000000000000000  12.830200000000000
%ENDBLOCK LATTICE_CART

%BLOCK POSITIONS_FRAC
C    0.333333333333333   0.666666666666667   0.652992000000000 
C    0.666666666666667   0.333333333333333   0.347008000000000 
C    0.000000000000000   0.000000000000000   0.680338000000000 
C    0.000000000000000   0.000000000000000   0.319662000000000 
C    0.666666666666667   0.333333333333333   0.986322000000000 
C    0.333333333333333   0.666666666666667   0.013678000000000 
C    0.566694000000000   0.835558000000000   0.812301000000000 
C    0.268864000000000   0.433306000000000   0.812301000000000 
C    0.835558000000000   0.268864000000000   0.187699000000000 
C    0.731136000000000   0.566694000000000   0.187699000000000 
C    0.433306000000000   0.164442000000000   0.187699000000000 
C    0.164442000000000   0.731136000000000   0.812301000000000 
C    0.766636000000000   0.831106000000000   0.521033000000000 
C    0.064470000000000   0.233364000000000   0.521033000000000 
C    0.831106000000000   0.064470000000000   0.478967000000000 
C    0.935530000000000   0.766636000000000   0.478967000000000 
C    0.233364000000000   0.168894000000000   0.478967000000000 
C    0.168894000000000   0.935530000000000   0.521033000000000 
C    0.900052000000000   0.502242000000000   0.145638000000000 
C    0.602190000000000   0.099948000000000   0.145638000000000 
C    0.502242000000000   0.602190000000000   0.854362000000000 
C    0.397810000000000   0.900052000000000   0.854362000000000 
C    0.099948000000000   0.497758000000000   0.854362000000000 
C    0.497758000000000   0.397810000000000   0.145638000000000 
C    0.569642000000000   0.843085000000000   0.691801000000000 
C    0.273443000000000   0.430358000000000   0.691801000000000 
C    0.843085000000000   0.273443000000000   0.308199000000000 
C    0.726557000000000   0.569642000000000   0.308199000000000 
C    0.430358000000000   0.156915000000000   0.308199000000000 
C    0.156915000000000   0.726557000000000   0.691801000000000 
C    0.763691000000000   0.823581000000000   0.641531000000000 
C    0.059890000000000   0.236309000000000   0.641531000000000 
C    0.823581000000000   0.059890000000000   0.358469000000000 
C    0.940110000000000   0.763691000000000   0.358469000000000 
C    0.236309000000000   0.176419000000000   0.358469000000000 
C    0.176419000000000   0.940110000000000   0.641531000000000 
C    0.902971000000000   0.509747000000000   0.025136000000000 
C    0.606776000000000   0.097029000000000   0.025136000000000 
C    0.509747000000000   0.606776000000000   0.974864000000000 
C    0.393224000000000   0.902971000000000   0.974864000000000 
C    0.097029000000000   0.490253000000000   0.974864000000000 
C    0.490253000000000   0.393224000000000   0.025136000000000 
H    0.333333333333333   0.666666666666667   0.567543000000000 
H    0.666666666666667   0.333333333333333   0.432457000000000 
H    0.000000000000000   0.000000000000000   0.765790000000000 
H    0.000000000000000   0.000000000000000   0.234210000000000 
H    0.666666666666667   0.333333333333333   0.900880000000000 
H    0.333333333333333   0.666666666666667   0.099120000000000 
H    0.007808000000000   0.413550000000000   0.330109000000000 
H    0.405742000000000   0.992192000000000   0.330109000000000 
H    0.413550000000000   0.405742000000000   0.669891000000000 
H    0.594258000000000   0.007808000000000   0.669891000000000 
H    0.992192000000000   0.586450000000000   0.669891000000000 
H    0.586450000000000   0.594258000000000   0.330109000000000 
H    0.325524000000000   0.253116000000000   0.003227000000000 
H    0.927592000000000   0.674476000000000   0.003227000000000 
H    0.253116000000000   0.927592000000000   0.996773000000000 
H    0.072408000000000   0.325524000000000   0.996773000000000 
H    0.674476000000000   0.746884000000000   0.996773000000000 
H    0.746884000000000   0.072408000000000   0.003227000000000 
H    0.341141000000000   0.080217000000000   0.663440000000000 
H    0.739076000000000   0.658859000000000   0.663440000000000 
H    0.080217000000000   0.739076000000000   0.336560000000000 
H    0.260924000000000   0.341141000000000   0.336560000000000 
H    0.658859000000000   0.919783000000000   0.336560000000000 
H    0.919783000000000   0.260924000000000   0.663440000000000 
H    0.110353000000000   0.399960000000000   0.491271000000000 
H    0.289607000000000   0.889647000000000   0.491271000000000 
H    0.399960000000000   0.289607000000000   0.508729000000000 
H    0.710393000000000   0.110353000000000   0.508729000000000 
H    0.889647000000000   0.600040000000000   0.508729000000000 
H    0.600040000000000   0.710393000000000   0.491271000000000 
H    0.222983000000000   0.266707000000000   0.842061000000000 
H    0.043724000000000   0.777017000000000   0.842061000000000 
H    0.266707000000000   0.043724000000000   0.157939000000000 
H    0.956276000000000   0.222983000000000   0.157939000000000 
H    0.777017000000000   0.733293000000000   0.157939000000000 
H    0.733293000000000   0.956276000000000   0.842061000000000 
H    0.443682000000000   0.066615000000000   0.824606000000000 
H    0.622933000000000   0.556318000000000   0.824606000000000 
H    0.066615000000000   0.622933000000000   0.175394000000000 
H    0.377067000000000   0.443682000000000   0.175394000000000 
H    0.556318000000000   0.933385000000000   0.175394000000000 
H    0.933385000000000   0.377067000000000   0.824606000000000 
%ENDBLOCK POSITIONS_FRAC

# Commented out pseudopotential block for easy editing
#%BLOCK SPECIES_POT
# H   H_00.usp
# C   C_00.usp
#%ENDBLOCK SPECIES_POT


kpoints_mp_spacing 0.1
symmetry_generate