#*************************************************************************************************************************************
#*                                           Generated by cif2cell 1.2.10 2019-02-18 10:37                                           *
#*                           T. Bjorkman, Comp. Phys. Commun. 182, 1183-1186 (2011). Please cite generously.                         *
#*                                                                                                                                   *
#*                                         Data obtained from ICSD. Reference number : 16428                                         *
#*                                                      C O2   (Carbon dioxide)                                                      *
#* Simon, A. and Peters, K., Acta Crystallographica, Section B: Structural Crystallography and CrystalChemistry 36, 2750-2751 (1980) *
#*************************************************************************************************************************************

%BLOCK LATTICE_CART
ang    # angstrom units
   5.624000000000000   0.000000000000000   0.000000000000000
   0.000000000000000   5.624000000000000   0.000000000000000
   0.000000000000000   0.000000000000000   5.624000000000000
%ENDBLOCK LATTICE_CART

%BLOCK POSITIONS_FRAC
O    0.118500000000000   0.118500000000000   0.118500000000000 
O    0.618500000000000   0.381500000000000   0.881500000000000 
O    0.118500000000000   0.381500000000000   0.618500000000000 
O    0.381500000000000   0.881500000000000   0.618500000000000 
O    0.381500000000000   0.618500000000000   0.118500000000000 
O    0.881500000000000   0.618500000000000   0.381500000000000 
O    0.618500000000000   0.118500000000000   0.381500000000000 
O    0.881500000000000   0.881500000000000   0.881500000000000 
C    0.000000000000000   0.000000000000000   0.000000000000000 
C    0.500000000000000   0.500000000000000   0.000000000000000 
C    0.000000000000000   0.500000000000000   0.500000000000000 
C    0.500000000000000   0.000000000000000   0.500000000000000 
%ENDBLOCK POSITIONS_FRAC

# Commented out pseudopotential block for easy editing
#%BLOCK SPECIES_POT
# C   C_00.usp
# O   O_00.usp
#%ENDBLOCK SPECIES_POT


kpoints_mp_spacing 0.1
symmetry_generate