#***************************************************************************************
#*                    Generated by cif2cell 1.2.10 2019-02-15 14:24                    *
#*    T. Bjorkman, Comp. Phys. Commun. 182, 1183-1186 (2011). Please cite generously.  *
#*                                                                                     *
#*                  Data obtained from ICSD. Reference number : 411857                 *
#*                      P3 N5   (Triphosphorus(V) nitride - gamma)                     *
#* Landskron, K. et al., Angewandte Chemie, International Edition 40, 2643-2645 (2001) *
#***************************************************************************************

%BLOCK LATTICE_CART
ang    # angstrom units
  12.872000000000000   0.000000000000000   0.000000000000000
   0.000000000000000   2.613120000000000   0.000000000000000
   6.436000000000000   1.306560000000000   2.200200000000000
%ENDBLOCK LATTICE_CART

%BLOCK POSITIONS_FRAC
P    0.688600000000000   0.688600000000000   0.622800000000000 
P    0.861100000000000   0.542000000000000   0.916000000000000 
P    0.222900000000000   0.542000000000000   0.916000000000000 
N    0.484100000000000   0.984100000000000   0.031800000000000 
N    0.818500000000000   0.923200000000000   0.153600000000000 
N    0.027900000000000   0.923200000000000   0.153600000000000 
N    0.506900000000000   0.280400000000000   0.439200000000000 
N    0.053900000000000   0.280400000000000   0.439200000000000 
%ENDBLOCK POSITIONS_FRAC

# Commented out pseudopotential block for easy editing
#%BLOCK SPECIES_POT
# P   P_00.usp
# N   N_00.usp
#%ENDBLOCK SPECIES_POT


kpoints_mp_spacing 0.1
symmetry_generate