#*******************************************************************************************
#*                      Generated by cif2cell 1.2.10 2019-02-18 10:37                      *
#*      T. Bjorkman, Comp. Phys. Commun. 182, 1183-1186 (2011). Please cite generously.    *
#*                                                                                         *
#*                    Data obtained from ICSD. Reference number : 26158                    *
#*                               Ca Cl2   (Calcium chloride)                               *
#* Busing, W.R., Transactions of the American Crystallographic Association 6, 57-72 (1970) *
#*******************************************************************************************

%BLOCK LATTICE_CART
ang    # angstrom units
   6.240000000000000   0.000000000000000   0.000000000000000
   0.000000000000000   6.430000000000000   0.000000000000000
   0.000000000000000   0.000000000000000   4.200000000000000
%ENDBLOCK LATTICE_CART

%BLOCK POSITIONS_FRAC
Ca   0.000000000000000   0.000000000000000   0.000000000000000 
Ca   0.500000000000000   0.500000000000000   0.500000000000000 
Cl   0.275000000000000   0.325000000000000   0.000000000000000 
Cl   0.225000000000000   0.825000000000000   0.500000000000000 
Cl   0.725000000000000   0.675000000000000   0.000000000000000 
Cl   0.775000000000000   0.175000000000000   0.500000000000000 
%ENDBLOCK POSITIONS_FRAC

# Commented out pseudopotential block for easy editing
#%BLOCK SPECIES_POT
# Ca  Ca_00.usp
# Cl  Cl_00.usp
#%ENDBLOCK SPECIES_POT


kpoints_mp_spacing 0.1
symmetry_generate