#************************************************************************************
#*                  Generated by cif2cell 1.2.10 2019-02-18 10:37                   *
#*  T. Bjorkman, Comp. Phys. Commun. 182, 1183-1186 (2011). Please cite generously. *
#*                                                                                  *
#*                Data obtained from ICSD. Reference number : 202496                *
#*                            K O3   (Potassium ozonide)                            *
#*     Schnick, W. and Jansen, M., Revue de Chimie Minerale 24, 446-456 (1987)      *
#************************************************************************************

%BLOCK LATTICE_CART
ang    # angstrom units
   8.635800000000000   0.000000000000000   0.000000000000000
   0.000000000000000   8.635800000000000   0.000000000000000
   4.317900000000000   4.317900000000000   3.570300000000000
%ENDBLOCK LATTICE_CART

%BLOCK POSITIONS_FRAC
K    0.750000000000000   0.750000000000000   0.500000000000000 
K    0.250000000000000   0.250000000000000   0.500000000000000 
K    0.750000000000000   0.250000000000000   0.500000000000000 
K    0.250000000000000   0.750000000000000   0.500000000000000 
O    0.280700000000000   0.219300000000000   0.000000000000000 
O    0.780700000000000   0.280700000000000   0.000000000000000 
O    0.719300000000000   0.780700000000000   0.000000000000000 
O    0.219300000000000   0.719300000000000   0.000000000000000 
O    0.248900000000000   0.066700000000000   0.000000000000000 
O    0.433300000000000   0.251100000000000   0.000000000000000 
O    0.748900000000000   0.433300000000000   0.000000000000000 
O    0.566700000000000   0.748900000000000   0.000000000000000 
O    0.933300000000000   0.248900000000000   0.000000000000000 
O    0.751100000000000   0.933300000000000   0.000000000000000 
O    0.251100000000000   0.566700000000000   0.000000000000000 
O    0.066700000000000   0.751100000000000   0.000000000000000 
%ENDBLOCK POSITIONS_FRAC

# Commented out pseudopotential block for easy editing
#%BLOCK SPECIES_POT
# K   K_00.usp
# O   O_00.usp
#%ENDBLOCK SPECIES_POT


kpoints_mp_spacing 0.1
symmetry_generate