#*********************************************************************************************************
#*                             Generated by cif2cell 1.2.10 2019-02-15 14:24                             *
#*             T. Bjorkman, Comp. Phys. Commun. 182, 1183-1186 (2011). Please cite generously.           *
#*                                                                                                       *
#*                           Data obtained from ICSD. Reference number : 107946                          *
#*                                       Ga As   (Gallium arsenide)                                      *
#* Stevenson, A.W., Acta Crystallographica, Section A: Foundations of Crystallography 50, 621-632 (1994) *
#*********************************************************************************************************

%BLOCK LATTICE_CART
ang    # angstrom units
   2.826000000000000   2.826000000000000   0.000000000000000
   2.826000000000000   0.000000000000000   2.826000000000000
   0.000000000000000   2.826000000000000   2.826000000000000
%ENDBLOCK LATTICE_CART

%BLOCK POSITIONS_FRAC
As   0.250000000000000   0.250000000000000   0.250000000000000 
Ga   0.000000000000000   0.000000000000000   0.000000000000000 
%ENDBLOCK POSITIONS_FRAC

# Commented out pseudopotential block for easy editing
#%BLOCK SPECIES_POT
# As  As_00.usp
# Ga  Ga_00.usp
#%ENDBLOCK SPECIES_POT


kpoints_mp_spacing 0.1
symmetry_generate