#****************************************************************************************************
#*                          Generated by cif2cell 1.2.10 2019-02-15 14:24                           *
#*          T. Bjorkman, Comp. Phys. Commun. 182, 1183-1186 (2011). Please cite generously.         *
#*                                                                                                  *
#*                        Data obtained from ICSD. Reference number : 77378                         *
#*                                S O3   (Sulfur(VI) oxide - gamma)                                 *
#* Westrik, R. and MacGillavry, C.H., Recueil des Travaux Chimiques des Pays-Bas 60, 794-810 (1941) *
#****************************************************************************************************

%BLOCK LATTICE_CART
ang    # angstrom units
  10.699999999999999   0.000000000000000   0.000000000000000
   0.000000000000000  12.300000000000002   0.000000000000000
   0.000000000000000   0.000000000000000   5.300000000000000
%ENDBLOCK LATTICE_CART

%BLOCK POSITIONS_FRAC
S    0.119000000000000   0.925000000000000   0.191000000000000 
S    0.881000000000000   0.075000000000000   0.691000000000000 
S    0.619000000000000   0.575000000000000   0.191000000000000 
S    0.381000000000000   0.425000000000000   0.691000000000000 
S    0.346000000000000   0.854000000000000   0.017000000000000 
S    0.654000000000000   0.146000000000000   0.517000000000000 
S    0.846000000000000   0.646000000000000   0.017000000000000 
S    0.154000000000000   0.354000000000000   0.517000000000000 
S    0.303000000000000   0.078000000000000   0.074000000000000 
S    0.697000000000000   0.922000000000000   0.574000000000000 
S    0.803000000000000   0.422000000000000   0.074000000000000 
S    0.197000000000000   0.578000000000000   0.574000000000000 
O    0.175000000000000   0.914000000000000   0.415000000000000 
O    0.825000000000000   0.086000000000000   0.915000000000000 
O    0.675000000000000   0.586000000000000   0.415000000000000 
O    0.325000000000000   0.414000000000000   0.915000000000000 
O    0.375000000000000   0.846000000000000   0.260000000000000 
O    0.625000000000000   0.154000000000000   0.760000000000000 
O    0.875000000000000   0.654000000000000   0.260000000000000 
O    0.125000000000000   0.346000000000000   0.760000000000000 
O    0.350000000000000   0.071000000000000   0.328000000000000 
O    0.650000000000000   0.929000000000000   0.828000000000000 
O    0.850000000000000   0.429000000000000   0.328000000000000 
O    0.150000000000000   0.571000000000000   0.828000000000000 
O    0.194000000000000   0.847000000000000   0.000000000000000 
O    0.806000000000000   0.153000000000000   0.500000000000000 
O    0.694000000000000   0.653000000000000   0.000000000000000 
O    0.306000000000000   0.347000000000000   0.500000000000000 
O    0.990000000000000   0.910000000000000   0.157000000000000 
O    0.010000000000000   0.090000000000000   0.657000000000000 
O    0.490000000000000   0.590000000000000   0.157000000000000 
O    0.510000000000000   0.410000000000000   0.657000000000000 
O    0.163000000000000   0.042000000000000   0.079000000000000 
O    0.837000000000000   0.958000000000000   0.579000000000000 
O    0.663000000000000   0.458000000000000   0.079000000000000 
O    0.337000000000000   0.542000000000000   0.579000000000000 
O    0.318000000000000   0.175000000000000   0.934000000000000 
O    0.682000000000000   0.825000000000000   0.434000000000000 
O    0.818000000000000   0.325000000000000   0.934000000000000 
O    0.182000000000000   0.675000000000000   0.434000000000000 
O    0.364000000000000   0.978000000000000   0.921000000000000 
O    0.636000000000000   0.022000000000000   0.421000000000000 
O    0.864000000000000   0.522000000000000   0.921000000000000 
O    0.136000000000000   0.478000000000000   0.421000000000000 
O    0.397000000000000   0.781000000000000   0.843000000000000 
O    0.603000000000000   0.219000000000000   0.343000000000000 
O    0.897000000000000   0.719000000000000   0.843000000000000 
O    0.103000000000000   0.281000000000000   0.343000000000000 
%ENDBLOCK POSITIONS_FRAC

# Commented out pseudopotential block for easy editing
#%BLOCK SPECIES_POT
# S   S_00.usp
# O   O_00.usp
#%ENDBLOCK SPECIES_POT


kpoints_mp_spacing 0.1
symmetry_generate