#************************************************************************************
#*                  Generated by cif2cell 1.2.10 2019-02-18 10:37                   *
#*  T. Bjorkman, Comp. Phys. Commun. 182, 1183-1186 (2011). Please cite generously. *
#*                                                                                  *
#*                Data obtained from ICSD. Reference number : 39566                 *
#*                          Al Cl3   (Aluminium chloride)                           *
#*        Troyanov, S.I., Zhurnal Neorganicheskoi Khimii 37, 266-272 (1992)         *
#************************************************************************************

%BLOCK LATTICE_CART
ang    # angstrom units
   2.957000000000000  -5.117000000000000   0.000000000000000
   2.957000000000000   5.117000000000000   0.000000000000000
  -1.925331082262093   0.000000000000000   5.838750227889140
%ENDBLOCK LATTICE_CART

%BLOCK POSITIONS_FRAC
Cl   0.214700000000000   0.214700000000000   0.226300000000000 
Cl   0.785300000000000   0.785300000000000   0.773700000000000 
Cl   0.069510000000000   0.426890000000000   0.775200000000000 
Cl   0.573110000000000   0.930490000000000   0.224800000000000 
Cl   0.930490000000000   0.573110000000000   0.224800000000000 
Cl   0.426890000000000   0.069510000000000   0.775200000000000 
Al   0.833800000000000   0.166200000000000   0.000000000000000 
Al   0.166200000000000   0.833800000000000   0.000000000000000 
%ENDBLOCK POSITIONS_FRAC

# Commented out pseudopotential block for easy editing
#%BLOCK SPECIES_POT
# Al  Al_00.usp
# Cl  Cl_00.usp
#%ENDBLOCK SPECIES_POT


kpoints_mp_spacing 0.1
symmetry_generate