#************************************************************************************
#*                  Generated by cif2cell 1.2.10 2019-02-18 10:37                   *
#*  T. Bjorkman, Comp. Phys. Commun. 182, 1183-1186 (2011). Please cite generously. *
#*                                                                                  *
#*                Data obtained from ICSD. Reference number : 18012                 *
#*                            Li F   (Lithium fluoride)                             *
#*          Ott, H., Zeitschrift fuer Kristallographie 63, 222-230 (1926)           *
#************************************************************************************

%BLOCK LATTICE_CART
ang    # angstrom units
   2.014000000000000   2.014000000000000   0.000000000000000
   2.014000000000000   0.000000000000000   2.014000000000000
   0.000000000000000   2.014000000000000   2.014000000000000
%ENDBLOCK LATTICE_CART

%BLOCK POSITIONS_FRAC
F    0.500000000000000   0.500000000000000   0.500000000000000 
Li   0.000000000000000   0.000000000000000   0.000000000000000 
%ENDBLOCK POSITIONS_FRAC

# Commented out pseudopotential block for easy editing
#%BLOCK SPECIES_POT
# Li  Li_00.usp
# F   F_00.usp
#%ENDBLOCK SPECIES_POT


kpoints_mp_spacing 0.1
symmetry_generate