#************************************************************************************
#*                  Generated by cif2cell 1.2.10 2019-02-15 14:24                   *
#*  T. Bjorkman, Comp. Phys. Commun. 182, 1183-1186 (2011). Please cite generously. *
#*                                                                                  *
#*                Data obtained from ICSD. Reference number : 16262                 *
#*                             F2   (Fluorine - alpha)                              *
#*      Pauling, L. et al., Journal of Solid State Chemistry 2, 225-227 (1970)      *
#************************************************************************************

%BLOCK LATTICE_CART
ang    # angstrom units
   2.750000000000000  -1.640000000000000   0.000000000000000
   2.750000000000000   1.640000000000000   0.000000000000000
   0.000000000000000   0.000000000000000   7.280000000000000
%ENDBLOCK LATTICE_CART

%BLOCK POSITIONS_FRAC
F    0.968000000000000   0.602000000000000   0.099700000000000 
F    0.398000000000000   0.032000000000000   0.400300000000000 
F    0.032000000000000   0.398000000000000   0.900300000000000 
F    0.602000000000000   0.968000000000000   0.599700000000000 
%ENDBLOCK POSITIONS_FRAC

# Commented out pseudopotential block for easy editing
#%BLOCK SPECIES_POT
# F   F_00.usp
#%ENDBLOCK SPECIES_POT


kpoints_mp_spacing 0.1
symmetry_generate