#************************************************************************************
#*                  Generated by cif2cell 1.2.10 2019-02-15 14:24                   *
#*  T. Bjorkman, Comp. Phys. Commun. 182, 1183-1186 (2011). Please cite generously. *
#*                                                                                  *
#*                Data obtained from ICSD. Reference number : 40914                 *
#*                          B N   (Boron nitride - HP, HT)                          *
#*       Will, G. et al., Journal of the Less-Common Metals 117, 61-71 (1986)       *
#************************************************************************************

%BLOCK LATTICE_CART
ang    # angstrom units
   1.807650000000000   1.807650000000000   0.000000000000000
   1.807650000000000   0.000000000000000   1.807650000000000
   0.000000000000000   1.807650000000000   1.807650000000000
%ENDBLOCK LATTICE_CART

%BLOCK POSITIONS_FRAC
N    0.250000000000000   0.250000000000000   0.250000000000000 
B    0.000000000000000   0.000000000000000   0.000000000000000 
%ENDBLOCK POSITIONS_FRAC

# Commented out pseudopotential block for easy editing
#%BLOCK SPECIES_POT
# B   B_00.usp
# N   N_00.usp
#%ENDBLOCK SPECIES_POT


kpoints_mp_spacing 0.1
symmetry_generate