#************************************************************************************
#*                  Generated by cif2cell 1.2.10 2019-02-18 10:37                   *
#*  T. Bjorkman, Comp. Phys. Commun. 182, 1183-1186 (2011). Please cite generously. *
#*                                                                                  *
#*                Data obtained from ICSD. Reference number : 29128                 *
#*                             Na F   (Sodium fluoride)                             *
#*         Bragg, W.L., Nature (London, United Kingdom) 105, 646-648 (1920)         *
#************************************************************************************

%BLOCK LATTICE_CART
ang    # angstrom units
   2.390000000000000   2.390000000000000   0.000000000000000
   2.390000000000000   0.000000000000000   2.390000000000000
   0.000000000000000   2.390000000000000   2.390000000000000
%ENDBLOCK LATTICE_CART

%BLOCK POSITIONS_FRAC
Na   0.000000000000000   0.000000000000000   0.000000000000000 
F    0.500000000000000   0.500000000000000   0.500000000000000 
%ENDBLOCK POSITIONS_FRAC

# Commented out pseudopotential block for easy editing
#%BLOCK SPECIES_POT
# Na  Na_00.usp
# F   F_00.usp
#%ENDBLOCK SPECIES_POT


kpoints_mp_spacing 0.1
symmetry_generate