#************************************************************************************************************************
#*                                    Generated by cif2cell 1.2.10 2019-02-18 10:37                                     *
#*                    T. Bjorkman, Comp. Phys. Commun. 182, 1183-1186 (2011). Please cite generously.                   *
#*                                                                                                                      *
#*                                   Data obtained from ICSD. Reference number : 2130                                   *
#*                                             C (C N)4   (Carbon cyanide)                                              *
#* Britton, D., Acta Crystallographica, Section B: Structural Crystallography and CrystalChemistry 30, 1818-1821 (1974) *
#************************************************************************************************************************

%BLOCK LATTICE_CART
ang    # angstrom units
   5.231948139396388   0.000000000000000   3.875000000000000
  -2.615974069698194   4.531000000000000   3.875000000000000
  -2.615974069698194  -4.531000000000000   3.875000000000000
%ENDBLOCK LATTICE_CART

%BLOCK POSITIONS_FRAC
N    0.225000000000000   0.225000000000000   0.225000000000000 
N    0.725000000000000   0.725000000000000   0.725000000000000 
N    0.218900000000000   0.881600000000000   0.678100000000000 
N    0.381600000000000   0.718900000000000   0.178100000000000 
N    0.178100000000000   0.381600000000000   0.718900000000000 
N    0.718900000000000   0.178100000000000   0.381600000000000 
N    0.881600000000000   0.678100000000000   0.218900000000000 
N    0.678100000000000   0.218900000000000   0.881600000000000 
C    0.000000000000000   0.000000000000000   0.000000000000000 
C    0.500000000000000   0.500000000000000   0.500000000000000 
C    0.127500000000000   0.127500000000000   0.127500000000000 
C    0.627500000000000   0.627500000000000   0.627500000000000 
C    0.123500000000000   0.932700000000000   0.816300000000000 
C    0.432700000000000   0.623500000000000   0.316300000000000 
C    0.316300000000000   0.432700000000000   0.623500000000000 
C    0.623500000000000   0.316300000000000   0.432700000000000 
C    0.932700000000000   0.816300000000000   0.123500000000000 
C    0.816300000000000   0.123500000000000   0.932700000000000 
%ENDBLOCK POSITIONS_FRAC

# Commented out pseudopotential block for easy editing
#%BLOCK SPECIES_POT
# C   C_00.usp
# N   N_00.usp
#%ENDBLOCK SPECIES_POT


kpoints_mp_spacing 0.1
symmetry_generate