#********************************************************************************************************************************************
#*                                              Generated by cif2cell 1.2.10 2019-02-15 14:24                                               *
#*                              T. Bjorkman, Comp. Phys. Commun. 182, 1183-1186 (2011). Please cite generously.                             *
#*                                                                                                                                          *
#*                                            Data obtained from ICSD. Reference number : 27249                                             *
#*                                                        N2   (Dinitrogen - alpha)                                                         *
#* la Placa, S.J. and Hamilton, W.C., Acta Crystallographica, Section B: Structural Crystallography and CrystalChemistry 28, 984-985 (1972) *
#********************************************************************************************************************************************

%BLOCK LATTICE_CART
ang    # angstrom units
   5.650000000000000   0.000000000000000   0.000000000000000
   0.000000000000000   5.650000000000000   0.000000000000000
   0.000000000000000   0.000000000000000   5.650000000000000
%ENDBLOCK LATTICE_CART

%BLOCK POSITIONS_FRAC
N    0.069900000000000   0.069900000000000   0.069900000000000 
N    0.430100000000000   0.930100000000000   0.569900000000000 
N    0.569900000000000   0.430100000000000   0.930100000000000 
N    0.930100000000000   0.569900000000000   0.430100000000000 
N    0.962200000000000   0.962200000000000   0.962200000000000 
N    0.537800000000000   0.037800000000000   0.462200000000000 
N    0.462200000000000   0.537800000000000   0.037800000000000 
N    0.037800000000000   0.462200000000000   0.537800000000000 
%ENDBLOCK POSITIONS_FRAC

# Commented out pseudopotential block for easy editing
#%BLOCK SPECIES_POT
# N   N_00.usp
#%ENDBLOCK SPECIES_POT


kpoints_mp_spacing 0.1
symmetry_generate