#************************************************************************************
#*                  Generated by cif2cell 1.2.10 2019-02-15 14:24                   *
#*  T. Bjorkman, Comp. Phys. Commun. 182, 1183-1186 (2011). Please cite generously. *
#*                                                                                  *
#*                Data obtained from ICSD. Reference number : 165592                *
#*                            Na Cl   (Sodium chloride)                             *
#*        Cherginets, V.L. et al., Inorganic Chemistry 45, 7367-7371 (2006)         *
#************************************************************************************

%BLOCK LATTICE_CART
ang    # angstrom units
   2.828650000000000   2.828650000000000   0.000000000000000
   2.828650000000000   0.000000000000000   2.828650000000000
   0.000000000000000   2.828650000000000   2.828650000000000
%ENDBLOCK LATTICE_CART

%BLOCK POSITIONS_FRAC
Cl   0.500000000000000   0.500000000000000   0.500000000000000 
Na   0.000000000000000   0.000000000000000   0.000000000000000 
%ENDBLOCK POSITIONS_FRAC

# Commented out pseudopotential block for easy editing
#%BLOCK SPECIES_POT
# Na  Na_00.usp
# Cl  Cl_00.usp
#%ENDBLOCK SPECIES_POT


kpoints_mp_spacing 0.1
symmetry_generate