#*******************************************************************************************************************************
#*                                        Generated by cif2cell 1.2.10 2019-02-18 10:38                                        *
#*                        T. Bjorkman, Comp. Phys. Commun. 182, 1183-1186 (2011). Please cite generously.                      *
#*                                                                                                                             *
#*                                      Data obtained from ICSD. Reference number : 27798                                      *
#*                                                P Cl3   (Phosphorus chloride)                                                *
#* Enjalbert, R. et al., Comptes Rendus des Seances de l'Academie des Sciences, Serie C: SciencesChimiques 290, 239-241 (1980) *
#*******************************************************************************************************************************

%BLOCK LATTICE_CART
ang    # angstrom units
   8.042500000000000   0.000000000000000   0.000000000000000
   0.000000000000000   9.369100000000000   0.000000000000000
   0.000000000000000   0.000000000000000   6.079400000000000
%ENDBLOCK LATTICE_CART

%BLOCK POSITIONS_FRAC
Cl   0.098170000000000   0.083260000000000   0.262700000000000 
Cl   0.401830000000000   0.583260000000000   0.762700000000000 
Cl   0.401830000000000   0.916740000000000   0.762700000000000 
Cl   0.901830000000000   0.583260000000000   0.737300000000000 
Cl   0.901830000000000   0.916740000000000   0.737300000000000 
Cl   0.598170000000000   0.416740000000000   0.237300000000000 
Cl   0.598170000000000   0.083260000000000   0.237300000000000 
Cl   0.098170000000000   0.416740000000000   0.262700000000000 
Cl   0.195900000000000   0.250000000000000   0.838500000000000 
Cl   0.304100000000000   0.750000000000000   0.338500000000000 
Cl   0.804100000000000   0.750000000000000   0.161500000000000 
Cl   0.695900000000000   0.250000000000000   0.661500000000000 
P    0.018440000000000   0.250000000000000   0.075000000000000 
P    0.481560000000000   0.750000000000000   0.575000000000000 
P    0.981560000000000   0.750000000000000   0.925000000000000 
P    0.518440000000000   0.250000000000000   0.425000000000000 
%ENDBLOCK POSITIONS_FRAC

# Commented out pseudopotential block for easy editing
#%BLOCK SPECIES_POT
# P   P_00.usp
# Cl  Cl_00.usp
#%ENDBLOCK SPECIES_POT


kpoints_mp_spacing 0.1
symmetry_generate