%block lattice_cart
2.582487754085196    0.0                  0.0                 
-1.2912438770425974  2.2365               0.0                 
0.0                  0.0                  6.68                
%endblock lattice_cart

%block positions_frac
C     0.0                  0.0                  0.0                 
C     0.3333333333333333   0.6666666666666666   0.0                 
C     0.33333333333333354  0.6666666666666669   0.5                 
C     0.6666666666666667   0.3333333333333335   0.5                 
%endblock positions_frac

kpoints_mp_grid 36 36 6
