%block lattice_cart
2.4595121531971738   0.0                  0.0                 
-1.2297560715985867  2.130000002768833    0.0                 
0.0                  0.0                  6.680000008683478   
%endblock lattice_cart

%block positions_frac
C     0.4929991340394899   0.2163049685979921   0.9868611575569761  
C     0.8169958393288663   0.8819606538387514   0.99756086984539    
C     0.5063344164068191   0.7777067516155007   0.5120389462461548  
C     0.8503372768913913   0.457360959280912    0.5035390263514471  
%endblock positions_frac

symmetry_generate

kpoints_mp_grid 18 18 4