%block lattice_cart
2.4595121531971738   0.0                  0.0                 
-1.2297560715985867  2.130000002768833    0.0                 
0.0                  0.0                  6.680000008683478   
%endblock lattice_cart

%block positions_frac
C     0.5382431270504995   0.19056348688469704  0.007083119643830317
C     0.8905482013571202   0.8602289517922745   0.0004372333255784621
C     0.45969014883930015  0.809049763866371    0.49824468642602115 
C     0.7781851894197054   0.4734911307899008   0.49423496060454736 
%endblock positions_frac

symmetry_generate

kpoints_mp_grid 18 18 4