%block lattice_cart
2.4595121531971738   0.0                  0.0                 
-1.2297560715985867  2.130000002768833    0.0                 
0.0                  0.0                  6.680000008683478   
%endblock lattice_cart

%block positions_frac
C     0.9727201946165724   0.5743989413745085   0.007570252965718724
C     0.2982751916158062   0.24469469665482002  0.007018661354351728
C     0.03805389655332014  0.421777557059305    0.4926615177995995  
C     0.3576173838809744   0.09246213824472393  0.4927495678803305  
%endblock positions_frac

symmetry_generate

kpoints_mp_grid 18 18 4