%block lattice_cart
2.4595121531971738   0.0                  0.0                 
-1.2297560715985867  2.130000002768833    0.0                 
0.0                  0.0                  6.680000008683478   
%endblock lattice_cart

%block positions_frac
C     0.9757294654191888   0.6120004975928328   0.9979860939780574  
C     0.3148245709828128   0.29341101716393503  0.0004589444070408524
C     0.015709576425779304 0.3702799844777256   0.5002964137715703  
C     0.3604030538388905   0.057641834098874245 0.5012585478433321  
%endblock positions_frac

symmetry_generate

kpoints_mp_grid 18 18 4