%block lattice_cart
2.4595121531971738   0.0                  0.0                 
-1.2297560715985867  2.130000002768833    0.0                 
0.0                  0.0                  6.680000008683478   
%endblock lattice_cart

%block positions_frac
C     0.19756719528342456  0.03951937763622476  0.9915277566011557  
C     0.5262894847319827   0.6927879892820352   0.998580576345928   
C     0.8028063964743132   0.9690926854635947   0.5081730660597797  
C     0.1400035901769469   0.63193328095148     0.5017186009931365  
%endblock positions_frac

symmetry_generate

kpoints_mp_grid 18 18 4