%block lattice_cart
2.4595121531971738   0.0                  0.0                 
-1.2297560715985867  2.130000002768833    0.0                 
0.0                  0.0                  6.680000008683478   
%endblock lattice_cart

%block positions_frac
C     0.7749122564290332   0.43414152416949214  0.0015639789867793919
C     0.1066215453363526   0.10419645043808856  0.9950726809908613  
C     0.23014992240338472  0.5637245072941948   0.4987133270519323  
C     0.5549829424977943   0.23127085143137194  0.5046500129703941  
%endblock positions_frac

symmetry_generate

kpoints_mp_grid 18 18 4