%block lattice_cart
2.4595121531971738   0.0                  0.0                 
-1.2297560715985867  2.130000002768833    0.0                 
0.0                  0.0                  6.680000008683478   
%endblock lattice_cart

%block positions_frac
C     0.4528868002881694   0.2777010391820145   0.016546949513702766
C     0.788553170177714    0.9315409639976213   0.015387974340616246
C     0.5463125646606741   0.7295328157031857   0.48293148228636973 
C     0.8789141315399931   0.39455851445034185  0.4851335938592675  
%endblock positions_frac

symmetry_generate

kpoints_mp_grid 18 18 4