%block lattice_cart
2.4595121531971738   0.0                  0.0                 
-1.2297560715985867  2.130000002768833    0.0                 
0.0                  0.0                  6.680000008683478   
%endblock lattice_cart

%block positions_frac
C     0.02174885330639853  0.8488413887747619   0.0017562375977944313
C     0.36557668765635043  0.5268741599759803   0.00590530940230217 
C     0.9756962046850877   0.14225867923220115  0.49634765024282923 
C     0.30364492101874774  0.8153591053502307   0.49599080275704277 
%endblock positions_frac

symmetry_generate

kpoints_mp_grid 18 18 4