%block lattice_cart
2.4595121531971738   0.0                  0.0                 
-1.2297560715985867  2.130000002768833    0.0                 
0.0                  0.0                  6.680000008683478   
%endblock lattice_cart

%block positions_frac
C     0.9716337569827402   0.6230837695178355   0.0005821301962090266
C     0.2981101949707323   0.3065949983000493   0.00735034907644528 
C     0.033971553820720146 0.3683578905824856   0.4998391319986516  
C     0.36295116089237567  0.03529667493280009  0.4922283887286599  
%endblock positions_frac

symmetry_generate

kpoints_mp_grid 18 18 4