%block lattice_cart
2.4595121531971738   0.0                  0.0                 
-1.2297560715985867  2.130000002768833    0.0                 
0.0                  0.0                  6.680000008683478   
%endblock lattice_cart

%block positions_frac
C     0.9444056447158289   0.6948440615671547   0.9971529471869937  
C     0.28420131800461945  0.3742313843528837   0.983154486116881   
C     0.05558843938292668  0.2977490423657496   0.5137750325524125  
C     0.3824712645632342   0.9665088450474126   0.5059175341436866  
%endblock positions_frac

symmetry_generate

kpoints_mp_grid 18 18 4