%block lattice_cart
2.4595121531971738   0.0                  0.0                 
-1.2297560715985867  2.130000002768833    0.0                 
0.0                  0.0                  6.680000008683478   
%endblock lattice_cart

%block positions_frac
C     0.9563166424018448   0.7050494508120284   0.007101502413905611
C     0.2892215846921342   0.368054516069769    0.008094536629680057
C     0.04892902702611224  0.30499036003878643  0.4928603110186521  
C     0.3721994125464949   0.9552390064125955   0.4919436499377313  
%endblock positions_frac

symmetry_generate

kpoints_mp_grid 18 18 4