%block lattice_cart
2.4595121531971738   0.0                  0.0                 
-1.2297560715985867  2.130000002768833    0.0                 
0.0                  0.0                  6.680000008683478   
%endblock lattice_cart

%block positions_frac
C     0.2901275847770308   0.11331666246103778  0.011415772385718137
C     0.6288714698240363   0.7836942139773493   0.00570517862062981 
C     0.7083912747403724   0.885941306933266    0.48915222084653726 
C     0.03927633732523317  0.5503811499616917   0.49372682814711555 
%endblock positions_frac

symmetry_generate

kpoints_mp_grid 18 18 4