%block lattice_cart
2.4595121531971738   0.0                  0.0                 
-1.2297560715985867  2.130000002768833    0.0                 
0.0                  0.0                  6.680000008683478   
%endblock lattice_cart

%block positions_frac
C     0.6851122869944248   0.10992758769432953  0.9837070977748883  
C     0.009729799725120003 0.7783206478844935   0.9871553319391784  
C     0.31240202387119176  0.883203882257277    0.5148224594140791  
C     0.6594225560758957   0.5618812154971842   0.5143151108718382  
%endblock positions_frac

symmetry_generate

kpoints_mp_grid 18 18 4