%block lattice_cart
2.4595121531971738   0.0                  0.0                 
-1.2297560715985867  2.130000002768833    0.0                 
0.0                  0.0                  6.680000008683478   
%endblock lattice_cart

%block positions_frac
C     0.5616118603819658   0.9449254569050636   0.997204294829673   
C     0.893216470445048    0.6068062537723673   0.9967781262624199  
C     0.43199019297400465  0.053098191871504774 0.5034579794257461  
C     0.7798481428656174   0.7285034307843778   0.5025595994821592  
%endblock positions_frac

symmetry_generate

kpoints_mp_grid 18 18 4