%block lattice_cart
2.4595121531971738   0.0                  0.0                 
-1.2297560715985867  2.130000002768833    0.0                 
0.0                  0.0                  6.680000008683478   
%endblock lattice_cart

%block positions_frac
C     0.71379634715408     0.5042934392295226   0.005191284926304648
C     0.03146872877329088  0.16507963145290994  0.009939684536583485
C     0.2860553841296838   0.49480575150457895  0.4912346481254923  
C     0.6353462066095634   0.1691545111462034   0.49363438241159674 
%endblock positions_frac

symmetry_generate

kpoints_mp_grid 18 18 4