%block lattice_cart
2.4595121531971738   0.0                  0.0                 
-1.2297560715985867  2.130000002768833    0.0                 
0.0                  0.0                  6.680000008683478   
%endblock lattice_cart

%block positions_frac
C     0.1346177521966858   0.46525641881078705  0.9901963257073866  
C     0.4486197116033672   0.1204748975708867   0.9915138721865907  
C     0.8779778588164069   0.5415803159358976   0.5072956166606418  
C     0.20545134405016796  0.20602170101572703  0.5109941854453737  
%endblock positions_frac

symmetry_generate

kpoints_mp_grid 18 18 4