%block lattice_cart
2.4595121531971738   0.0                  0.0                 
-1.2297560715985867  2.130000002768833    0.0                 
0.0                  0.0                  6.680000008683478   
%endblock lattice_cart

%block positions_frac
C     0.5462576652854398   0.21613977684808283  0.0065352551678452015
C     0.8723867298086461   0.8810492742053722   0.014147759008660896
C     0.4579870634029959   0.7906681323877329   0.4833528283128698  
C     0.7900352081695168   0.44547614989199324  0.49596415751059925 
%endblock positions_frac

symmetry_generate

kpoints_mp_grid 18 18 4