%block lattice_cart
2.4595121531971738   0.0                  0.0                 
-1.2297560715985867  2.130000002768833    0.0                 
0.0                  0.0                  6.680000008683478   
%endblock lattice_cart

%block positions_frac
C     0.9207897752476297   0.5059173576205893   0.013759310994666044
C     0.27673486399170244  0.18524789405959785  0.007554259847949343
C     0.05268875519918126  0.476255417457895    0.48668052897759245 
C     0.4164532722281562   0.1659126641952755   0.4920059001797928  
%endblock positions_frac

symmetry_generate

kpoints_mp_grid 18 18 4