%block lattice_cart
2.4595121531971738   0.0                  0.0                 
-1.2297560715985867  2.130000002768833    0.0                 
0.0                  0.0                  6.680000008683478   
%endblock lattice_cart

%block positions_frac
C     0.5490517044297896   0.2625227812535744   0.9994313598024529  
C     0.8857411645265536   0.9299406249106799   0.005684795107081776
C     0.4549516377565812   0.73529067571795     0.49980337918963286 
C     0.7769221599536422   0.40557925145094664  0.49508046590080035 
%endblock positions_frac

symmetry_generate

kpoints_mp_grid 18 18 4