%block lattice_cart
2.4595121531971738   0.0                  0.0                 
-1.2297560715985867  2.130000002768833    0.0                 
0.0                  0.0                  6.680000008683478   
%endblock lattice_cart

%block positions_frac
C     0.42548630966990597  0.07870656189688076  0.00885815211778482 
C     0.7615359040684504   0.7419662668117011   0.0030996907452533395
C     0.5745318980596368   0.9264569814505794   0.49149672293989694 
C     0.9051125548686745   0.5862035231741731   0.49654543419706487 
%endblock positions_frac

symmetry_generate

kpoints_mp_grid 18 18 4