%block lattice_cart
2.4595121531971738   0.0                  0.0                 
-1.2297560715985867  2.130000002768833    0.0                 
0.0                  0.0                  6.680000008683478   
%endblock lattice_cart

%block positions_frac
C     0.7043206498462418   0.3746460941802141   0.012030598334065558
C     0.023153205984037584 0.04403324112645457  0.006029848897844502
C     0.2990659620693137   0.6190643387270196   0.4879659953254189  
C     0.6401268487669753   0.29558965929946446  0.4939735574426385  
%endblock positions_frac

symmetry_generate

kpoints_mp_grid 18 18 4