%block lattice_cart
2.4595121531971738   0.0                  0.0                 
-1.2297560715985867  2.130000002768833    0.0                 
0.0                  0.0                  6.680000008683478   
%endblock lattice_cart

%block positions_frac
C     0.8347168639189229   0.3561606425216202   0.00015115568664904428
C     0.1678977216712778   0.02211622915363054  0.0034049685037147157
C     0.16840780735013572  0.6459561937830308   0.49956322111727053 
C     0.49564427372633135  0.3091002678750534   0.4968806546923654  
%endblock positions_frac

symmetry_generate

kpoints_mp_grid 18 18 4