%block lattice_cart
2.4595121531971738   0.0                  0.0                 
-1.2297560715985867  2.130000002768833    0.0                 
0.0                  0.0                  6.680000008683478   
%endblock lattice_cart

%block positions_frac
C     0.12102885740364007  0.016481750487760346 0.0077511780931342955
C     0.453800008843954    0.6922107478083516   0.005580994422150274
C     0.8808849772741659   0.9726587160924852   0.49239751865300496 
C     0.2109528231449072   0.6519821189447372   0.49427030883171047 
%endblock positions_frac

symmetry_generate

kpoints_mp_grid 18 18 4