%block lattice_cart
2.4595121531971738   0.0                  0.0                 
-1.2297560715985867  2.130000002768833    0.0                 
0.0                  0.0                  6.680000008683478   
%endblock lattice_cart

%block positions_frac
C     0.7629534851255775   0.030577382228091032 0.010427559928200545
C     0.12218485411195523  0.7051080655920865   0.01588924166573008 
C     0.21652120739048009  0.9623522114819947   0.4857358787761336  
C     0.5650071200386417   0.6352956740311777   0.4879473196299365  
%endblock positions_frac

symmetry_generate

kpoints_mp_grid 18 18 4