%block lattice_cart
2.4595121531971738   0.0                  0.0                 
-1.2297560715985867  2.130000002768833    0.0                 
0.0                  0.0                  6.680000008683478   
%endblock lattice_cart

%block positions_frac
C     0.44503358567970963  0.9970284020280173   0.00837069508934715 
C     0.7749880501134339   0.6511043313827196   0.009821623828633236
C     0.5434753575065541   0.004912825319959069 0.49062675009481904 
C     0.903169673366941    0.6802877746026219   0.4911809309871978  
%endblock positions_frac

symmetry_generate

kpoints_mp_grid 18 18 4