%block lattice_cart
2.4595121500000000   0.0                  0.0                 
-1.2297560700000000  2.13                 0.0                 
0.0                  0.0                  6.68                 
%endblock lattice_cart

%block positions_frac
C     0.0                  0.0                  0.0                 
C     0.3333333333333333   0.6666666666666666   0.0                 
C     1.7676253978748444e-16 1.7676253978748447e-16 0.5                 
C     0.3333333333333335   0.6666666666666667   0.5                 
%endblock positions_frac


kpoints_mp_grid 8 8 2
