%block lattice_cart
2.4595121531971738   0.0                  0.0                 
-1.2297560715985867  2.130000002768833    0.0                 
0.0                  0.0                  6.680000008683478   
%endblock lattice_cart

%block positions_frac
C     0.1728440629009782   0.9541916808167628   0.9873817358304994  
C     0.49986615726714234  0.6107625905293457   0.9900982880927676  
C     0.8385888773706931   0.0536562840844379   0.5139710868208317  
C     0.15536756912773697  0.7147227779026011   0.5085488892558656  
%endblock positions_frac

symmetry_generate

kpoints_mp_grid 18 18 4