%block lattice_cart
2.4595121531971738   0.0                  0.0                 
-1.2297560715985867  2.130000002768833    0.0                 
0.0                  0.0                  6.680000008683478   
%endblock lattice_cart

%block positions_frac
C     0.894625819120666    0.3195939559494416   0.9925184250941198  
C     0.22461888315173884  0.9975619880914453   0.987619746705348   
C     0.109836148824078    0.6763373882133452   0.510562882858977   
C     0.4375858155701735   0.3398400010791045   0.5092989453415556  
%endblock positions_frac

symmetry_generate

kpoints_mp_grid 18 18 4