%block lattice_cart
2.4595121531971738   0.0                  0.0                 
-1.2297560715985867  2.130000002768833    0.0                 
0.0                  0.0                  6.680000008683478   
%endblock lattice_cart

%block positions_frac
C     0.8350408188840488   0.9638234776484427   0.01287284137453729 
C     0.17644936910958808  0.6417382261066791   0.011855183616586962
C     0.15226600658223588  0.025584303559621602 0.48726232234792705 
C     0.5029104720907962   0.702187326018598    0.4880096526609491  
%endblock positions_frac

symmetry_generate

kpoints_mp_grid 18 18 4