%block lattice_cart
2.4595121531971738   0.0                  0.0                 
-1.2297560715985867  2.130000002768833    0.0                 
0.0                  0.0                  6.680000008683478   
%endblock lattice_cart

%block positions_frac
C     0.6416025672202408   0.9030918891683604   0.006678061760985627
C     0.9723083104509005   0.5600694288037058   0.003214862084972922
C     0.35736177209578335  0.09998834702651438  0.4921953268160514  
C     0.6953940168997361   0.7701836683347725   0.4979117493379915  
%endblock positions_frac

symmetry_generate

kpoints_mp_grid 18 18 4