%block lattice_cart
2.4595121531971738   0.0                  0.0                 
-1.2297560715985867  2.130000002768833    0.0                 
0.0                  0.0                  6.680000008683478   
%endblock lattice_cart

%block positions_frac
C     0.0917504398176634   0.9352112211048702   0.010911991804966924
C     0.4398608934136279   0.6118251082398465   0.009160837873927028
C     0.8938920552667717   0.05708134870318693  0.4888150466527561  
C     0.24116327816860128  0.7292156552854503   0.4911121236683502  
%endblock positions_frac

symmetry_generate

kpoints_mp_grid 18 18 4