%block lattice_cart
2.4595121531971738   0.0                  0.0                 
-1.2297560715985867  2.130000002768833    0.0                 
0.0                  0.0                  6.680000008683478   
%endblock lattice_cart

%block positions_frac
C     0.981035649653843    0.1116013262729929   0.999006777364596   
C     0.32717542480801853  0.7765530220802805   0.009984062326225413
C     0.010579995336074788 0.894758187287457    0.49280971453954786 
C     0.3478755968686924   0.5504207976925635   0.49819944576961905 
%endblock positions_frac

symmetry_generate

kpoints_mp_grid 18 18 4