%block lattice_cart
2.4595121531971738   0.0                  0.0                 
-1.2297560715985867  2.130000002768833    0.0                 
0.0                  0.0                  6.680000008683478   
%endblock lattice_cart

%block positions_frac
C     0.41572817412009755  0.9943103881936022   0.9918941307629922  
C     0.7586925856289355   0.6568052257283465   0.9934070754705916  
C     0.5817651514411271   0.005738269735221735 0.5060093760373874  
C     0.9104807554764847   0.6764794496761031   0.5086894177290069  
%endblock positions_frac

symmetry_generate

kpoints_mp_grid 18 18 4