%block lattice_cart
2.4595121531971738   0.0                  0.0                 
-1.2297560715985867  2.130000002768833    0.0                 
0.0                  0.0                  6.680000008683478   
%endblock lattice_cart

%block positions_frac
C     0.30369978550436905  0.9466318214157345   0.011909151995099418
C     0.6423625136207374   0.6070680908446704   0.008615491648614788
C     0.6921834282812176   0.05988661071493295  0.4920817458289359  
C     0.028420939260342948 0.7197468103580329   0.4873936105273508  
%endblock positions_frac

symmetry_generate

kpoints_mp_grid 18 18 4