%block lattice_cart
2.4595121531971738   0.0                  0.0                 
-1.2297560715985867  2.130000002768833    0.0                 
0.0                  0.0                  6.680000008683478   
%endblock lattice_cart

%block positions_frac
C     0.7342093343421148   0.3884659020185577   0.006145887124024828
C     0.03329377143532852  0.03826970189872547  0.016014199573195845
C     0.28106270140083467  0.6196748820104965   0.48955896732788795 
C     0.6181008594883064   0.28692284740539975  0.4882809459748622  
%endblock positions_frac

symmetry_generate

kpoints_mp_grid 18 18 4