%block lattice_cart
2.4595121531971738   0.0                  0.0                 
-1.2297560715985867  2.130000002768833    0.0                 
0.0                  0.0                  6.680000008683478   
%endblock lattice_cart

%block positions_frac
C     0.24113368493475384  0.034478303940840505 0.9882834328206317  
C     0.5956388094955933   0.7234172913848909   0.9883837015623247  
C     0.7422073341521767   0.9531460923240704   0.50879394494284    
C     0.08768683808406941  0.6222916456833687   0.514538920674179   
%endblock positions_frac

symmetry_generate

kpoints_mp_grid 18 18 4