%block lattice_cart
2.4595121531971738   0.0                  0.0                 
-1.2297560715985867  2.130000002768833    0.0                 
0.0                  0.0                  6.680000008683478   
%endblock lattice_cart

%block positions_frac
C     0.16921310570669057  0.02085061799315646  0.9975758905336065  
C     0.49532896636616464  0.6727458374475326   0.0031698992277598686
C     0.8354617457677094   0.9848672650874999   0.5015821314312844  
C     0.16666284882601268  0.654869612804978    0.4976720788073174  
%endblock positions_frac

symmetry_generate

kpoints_mp_grid 18 18 4