%block lattice_cart
2.4595121531971738   0.0                  0.0                 
-1.2297560715985867  2.130000002768833    0.0                 
0.0                  0.0                  6.680000008683478   
%endblock lattice_cart

%block positions_frac
C     0.394853055803825    0.9944116312483597   0.01364632096945717 
C     0.7300066407334835   0.6726085024986528   0.015088418945368992
C     0.613666855529126    0.0006585462966111066 0.4828445110202635  
C     0.9281401146002031   0.6656546532896943   0.48842074906490723 
%endblock positions_frac

symmetry_generate

kpoints_mp_grid 18 18 4