%block lattice_cart
2.4595121531971738   0.0                  0.0                 
-1.2297560715985867  2.130000002768833    0.0                 
0.0                  0.0                  6.680000008683478   
%endblock lattice_cart

%block positions_frac
C     0.9960916406050426   0.6475611539194746   0.9916166061319674  
C     0.3282663456123691   0.3031827755890206   0.9991957320472621  
C     0.0010086723524311836 0.3653586750388511   0.5081243732440575  
C     0.3413000080968258   0.01723072878600962  0.5010632885767132  
%endblock positions_frac

symmetry_generate

kpoints_mp_grid 18 18 4