%block lattice_cart
2.4595121531971738   0.0                  0.0                 
-1.2297560715985867  2.130000002768833    0.0                 
0.0                  0.0                  6.680000008683478   
%endblock lattice_cart

%block positions_frac
C     0.571696886008219    0.007694535704798611 0.017485909290882642
C     0.8931027818900406   0.6574293024774533   0.010528509413917232
C     0.4385962335946765   0.9980918728318269   0.4886647080807302  
C     0.7632707651736954   0.6701176223192018   0.4833208732144549  
%endblock positions_frac

symmetry_generate

kpoints_mp_grid 18 18 4