%block lattice_cart
2.4595121531971738   0.0                  0.0                 
-1.2297560715985867  2.130000002768833    0.0                 
0.0                  0.0                  6.680000008683478   
%endblock lattice_cart

%block positions_frac
C     0.26581923855842376  0.035289804318881776 0.9842367930543877  
C     0.6102960262145087   0.7209537439786743   0.9947796965740654  
C     0.7304782055209229   0.9578993733877843   0.5152504848344197  
C     0.06007319637281203  0.619190411647994    0.5057330255371267  
%endblock positions_frac

symmetry_generate

kpoints_mp_grid 18 18 4