%block lattice_cart
2.4595121531971738   0.0                  0.0                 
-1.2297560715985867  2.130000002768833    0.0                 
0.0                  0.0                  6.680000008683478   
%endblock lattice_cart

%block positions_frac
C     0.9033130989852722   0.6286824306553731   0.005426945932230231
C     0.2121153480468898   0.2802819055086463   0.9970277594863323  
C     0.10992248134886395  0.3793154966510688   0.4970304881996584  
C     0.4413157382856223   0.04505350051822976  0.5005148063817793  
%endblock positions_frac

symmetry_generate

kpoints_mp_grid 18 18 4