%block lattice_cart
2.4595121531971738   0.0                  0.0                 
-1.2297560715985867  2.130000002768833    0.0                 
0.0                  0.0                  6.680000008683478   
%endblock lattice_cart

%block positions_frac
C     0.34152438310988487  0.25100107618331213  0.9950717981707696  
C     0.6866258097850828   0.934943389231957    0.9967425386375027  
C     0.6516456936784714   0.7329354831707304   0.5057109661824694  
C     0.9868707800932244   0.41445338474736193  0.5024746970092584  
%endblock positions_frac

symmetry_generate

kpoints_mp_grid 18 18 4