%block lattice_cart
2.4595121531971738   0.0                  0.0                 
-1.2297560715985867  2.130000002768833    0.0                 
0.0                  0.0                  6.680000008683478   
%endblock lattice_cart

%block positions_frac
C     0.6834445033175509   0.5011101546917516   0.989667728844399   
C     0.01856940635272153  0.16099215818714008  0.9887716688493822  
C     0.3130215032796837   0.5099243571898238   0.5112455313228685  
C     0.6516312537167073   0.16130666326464382  0.5103150709833502  
%endblock positions_frac

symmetry_generate

kpoints_mp_grid 18 18 4