%block lattice_cart
2.4595121531971738   0.0                  0.0                 
-1.2297560715985867  2.130000002768833    0.0                 
0.0                  0.0                  6.680000008683478   
%endblock lattice_cart

%block positions_frac
C     0.4867805174476878   0.42125842582912565  0.9933116794538099  
C     0.829536396679714    0.09054979291049658  0.9935594943248645  
C     0.4998017393264149   0.5728113752298141   0.5068661151293785  
C     0.850548013212852    0.24871373936393049  0.5062627110919482  
%endblock positions_frac

symmetry_generate

kpoints_mp_grid 18 18 4