%block lattice_cart
2.4595121531971738   0.0                  0.0                 
-1.2297560715985867  2.130000002768833    0.0                 
0.0                  0.0                  6.680000008683478   
%endblock lattice_cart

%block positions_frac
C     0.4131627748656088   0.3262139754150626   0.004609621110753102
C     0.7310659765008038   0.9804557490513988   0.00659156870046962 
C     0.6009150574153193   0.6831758733694504   0.4951814015832727  
C     0.9215228578849324   0.34348773549745193  0.4936174086055046  
%endblock positions_frac

symmetry_generate

kpoints_mp_grid 18 18 4