%block lattice_cart
2.4595121531971738   0.0                  0.0                 
-1.2297560715985867  2.130000002768833    0.0                 
0.0                  0.0                  6.680000008683478   
%endblock lattice_cart

%block positions_frac
C     0.5443580536553245   0.5549899122642801   0.9920407780966928  
C     0.8733083201506773   0.20901002208188224  0.9980490864588683  
C     0.4603822681166445   0.4551435759265168   0.5032697469467917  
C     0.7886180247440109   0.11418982306068459  0.5066403884976484  
%endblock positions_frac

symmetry_generate

kpoints_mp_grid 18 18 4