%block lattice_cart
2.4595121531971738   0.0                  0.0                 
-1.2297560715985867  2.130000002768833    0.0                 
0.0                  0.0                  6.680000008683478   
%endblock lattice_cart

%block positions_frac
C     0.464981507492233    0.15492255521260034  0.011491731758357155
C     0.8095395925370603   0.8307937340501912   0.01293560365922536 
C     0.528457924784302    0.8380239481911111   0.4876407473729291  
C     0.8636876418530015   0.5095930958792803   0.4879319172094638  
%endblock positions_frac

symmetry_generate

kpoints_mp_grid 18 18 4