%block lattice_cart
2.4595121531971738   0.0                  0.0                 
-1.2297560715985867  2.130000002768833    0.0                 
0.0                  0.0                  6.680000008683478   
%endblock lattice_cart

%block positions_frac
C     0.7779786812371174   0.7876476684652474   0.9855439981706842  
C     0.11148925520896036  0.45311399538869335  0.9897097867670074  
C     0.22620219167384903  0.2201049340531176   0.5133365833275796  
C     0.5509965385467073   0.8724667354262605   0.5114096317347285  
%endblock positions_frac

symmetry_generate

kpoints_mp_grid 18 18 4