%block lattice_cart
2.4595121531971738   0.0                  0.0                 
-1.2297560715985867  2.130000002768833    0.0                 
0.0                  0.0                  6.680000008683478   
%endblock lattice_cart

%block positions_frac
C     0.4558767956847882   0.17280596118354574  0.9904455584732677  
C     0.7890489619266798   0.8496861192364809   0.9922530913505693  
C     0.5454158826231135   0.8151124142696593   0.5096313783554954  
C     0.8763250264320872   0.49572883864365946  0.5076699718206684  
%endblock positions_frac

symmetry_generate

kpoints_mp_grid 18 18 4