%block lattice_cart
2.4595121531971738   0.0                  0.0                 
-1.2297560715985867  2.130000002768833    0.0                 
0.0                  0.0                  6.680000008683478   
%endblock lattice_cart

%block positions_frac
C     0.32151832277133074  0.5252337353969692   0.004061123192345501
C     0.6563404416705731   0.18337309134970603  0.007053394196816595
C     0.6756829991908955   0.48320359501125676  0.49474444872235457 
C     0.013124903033837398 0.14152291157536379  0.4941410338884701  
%endblock positions_frac

symmetry_generate

kpoints_mp_grid 18 18 4